********************************************************************************
Field Output Report, written Fri Feb 15 18:33:49 2019

Source 1
---------

   ODB: C:/Scratch/CRJ700-19.odb
   Step: Jam2
   Frame: Increment      1: Step Time =    1.000

Loc 1 : Element nodal  values at shell < ALUMINIUM > < 5 section points > from source 1 : SNEG, (fraction = -1.0) ( Average criteria = 75%, Not averaged across region boundaries )
Loc 2 : Element nodal  values at shell < ALUMINIUM > < 5 section points > from source 1 : SPOS, (fraction = 1.0) ( Average criteria = 75%, Not averaged across region boundaries )

Output sorted by column "Node Label".

Field Output reported at element nodes for region: CRJ700-1.Region_1
   Computation algorithm: EXTRAPOLATE_COMPUTE_AVERAGE
   Averaged at nodes
   Averaging regions: ODB_REGIONS

   Element Label      Node Label         S.Mises         S.Mises
                                          @Loc 1          @Loc 2
-----------------------------------------------------------------
             645               2     7.39041E-03     7.53910E-03
            1858               2     7.39041E-03     7.53910E-03
            2023               3     366.426E-03     396.150E-03
            1648               3     366.426E-03     396.150E-03
            1618               5     10.1246E-03     10.2714E-03
             675               5     10.1246E-03     10.2714E-03
            1643               6     91.3708E-06     149.002E-06
             641               8     24.8449E-03     24.9322E-03
            1622               8     24.8449E-03     24.9322E-03
             671               8     24.8449E-03     24.9322E-03
            1862               8     24.8449E-03     24.9322E-03
             670               9     91.3708E-06     149.002E-06
            1647              10     338.114E-06     333.028E-06
             666              10     338.114E-06     333.028E-06
            2725              11     352.032E-03     381.216E-03
             840              11     352.032E-03     381.216E-03
             836              12     76.4602E-03     76.3444E-03
            2721              12     76.4602E-03     76.3444E-03
            1652              12     76.4602E-03     76.3444E-03
            2027              12     76.4602E-03     76.3444E-03
            1668              16     406.238E-03     448.447E-03
            2145              16     406.238E-03     448.447E-03
            1672              19     118.806E-03     120.050E-03
            1833              19     118.806E-03     120.050E-03
            2149              19     118.806E-03     120.050E-03
            2741              19     118.806E-03     120.050E-03
            1837              20     424.929E-03     465.401E-03
            2745              20     424.929E-03     465.401E-03
            2764              21     261.723E-03     295.086E-03
            2165              21     261.723E-03     295.086E-03
            1857              23     266.581E-03     300.995E-03
            2174              23     266.581E-03     300.995E-03
            1853              24     193.094E-03     194.909E-03
            2170              24     193.094E-03     194.909E-03
            2169              24     193.094E-03     194.909E-03
            2768              24     193.094E-03     194.909E-03
            3191              26     19.7549E-03     20.0540E-03
            2224              26     19.7549E-03     20.0540E-03
            2220              27     61.9738E-03     62.1993E-03
            2856              27     61.9738E-03     62.1993E-03
            3187              27     61.9738E-03     62.1993E-03
            2818              27     61.9738E-03     62.1993E-03
            2852              28     23.2444E-03     23.5412E-03
            2814              28     23.2444E-03     23.5412E-03
            2877              31     91.1525E-06     149.068E-06
            3216              34     91.1525E-06     149.068E-06
            3212              35     337.969E-06     332.957E-06
            2881              35     337.969E-06     332.957E-06
            1863              51     12.8869E-03     16.8975E-03
            1858              51     12.8869E-03     16.8975E-03
            1863              52     8.44001E-03     15.6282E-03
            1868              52     8.44001E-03     15.6282E-03
            1873              53     17.9899E-03     20.4906E-03
            1868              53     17.9899E-03     20.4906E-03
            1873              54     40.9407E-03     37.4312E-03
            1878              54     40.9407E-03     37.4312E-03
            1883              55     55.9716E-03     60.9166E-03
            1878              55     55.9716E-03     60.9166E-03
            1888              56     82.3886E-03     78.4755E-03
            1883              56     82.3886E-03     78.4755E-03
            1893              57     103.337E-03     102.544E-03
            1888              57     103.337E-03     102.544E-03
            1898              58     86.2369E-03     95.6578E-03
            1893              58     86.2369E-03     95.6578E-03
            1898              59     79.4607E-03     76.1560E-03
            1903              59     79.4607E-03     76.1560E-03
            1908              60     99.4296E-03     94.2434E-03
            1903              60     99.4296E-03     94.2434E-03
            1913              61     113.739E-03     120.945E-03
            1908              61     113.739E-03     120.945E-03
            1918              62     145.142E-03     138.320E-03
            1913              62     145.142E-03     138.320E-03
            1918              63     168.312E-03     165.407E-03
            1923              63     168.312E-03     165.407E-03
            1928              64     148.459E-03     165.310E-03
            1923              64     148.459E-03     165.310E-03
            1928              65     147.295E-03     139.591E-03
            1933              65     147.295E-03     139.591E-03
            1938              66     161.518E-03     159.419E-03
            1933              66     161.518E-03     159.419E-03
            1943              67     179.140E-03     177.570E-03
            1938              67     179.140E-03     177.570E-03
            1948              68     194.553E-03     201.860E-03
            1943              68     194.553E-03     201.860E-03
            1953              69     227.748E-03     219.811E-03
            1948              69     227.748E-03     219.811E-03
            1953              70     253.072E-03     247.133E-03
            1958              70     253.072E-03     247.133E-03
            1958              71     225.808E-03     251.510E-03
            1963              71     225.808E-03     251.510E-03
            1963              72     227.966E-03     217.442E-03
            1968              72     227.966E-03     217.442E-03
            1968              73     240.245E-03     236.048E-03
            1973              73     240.245E-03     236.048E-03
            1978              74     254.873E-03     254.436E-03
            1973              74     254.873E-03     254.436E-03
            1978              75     270.444E-03     278.980E-03
            1983              75     270.444E-03     278.980E-03
            1988              76     307.154E-03     297.082E-03
            1983              76     307.154E-03     297.082E-03
            1993              77     334.881E-03     326.147E-03
            1988              77     334.881E-03     326.147E-03
            1993              78     302.137E-03     335.882E-03
            1998              78     302.137E-03     335.882E-03
            2003              79     307.249E-03     297.670E-03
            1998              79     307.249E-03     297.670E-03
            2008              80     324.999E-03     308.276E-03
            2003              80     324.999E-03     308.276E-03
            2008              81     323.882E-03     344.478E-03
            2013              81     323.882E-03     344.478E-03
            2013              82     372.146E-03     353.839E-03
            2018              82     372.146E-03     353.839E-03
            2018              83     399.015E-03     389.930E-03
            2023              83     399.015E-03     389.930E-03
            1623             147     402.481E-06     400.664E-06
            1618             147     402.481E-06     400.664E-06
            1623             148     293.767E-06     283.980E-06
            1628             148     293.767E-06     283.980E-06
            1633             149     173.079E-06     188.838E-06
            1628             149     173.079E-06     188.838E-06
            1633             150     113.470E-06     97.7066E-06
            1638             150     113.470E-06     97.7066E-06
            1643             151     80.5978E-06     116.277E-06
            1638             151     80.5978E-06     116.277E-06
            1861             172     23.4487E-03     23.5405E-03
             641             172     23.4487E-03     23.5405E-03
             642             172     23.4487E-03     23.5405E-03
            1862             172     23.4487E-03     23.5405E-03
             643             173     20.2903E-03     20.3993E-03
            1860             173     20.2903E-03     20.3993E-03
            1861             173     20.2903E-03     20.3993E-03
             642             173     20.2903E-03     20.3993E-03
             643             174     15.7015E-03     15.8399E-03
             644             174     15.7015E-03     15.8399E-03
            1859             174     15.7015E-03     15.8399E-03
            1860             174     15.7015E-03     15.8399E-03
             645             175     10.2468E-03     10.3989E-03
            1859             175     10.2468E-03     10.3989E-03
            1858             175     10.2468E-03     10.3989E-03
             644             175     10.2468E-03     10.3989E-03
             645             176     402.481E-06     400.664E-06
             650             176     402.481E-06     400.664E-06
             655             177     293.767E-06     283.980E-06
             650             177     293.767E-06     283.980E-06
             660             178     173.079E-06     188.838E-06
             655             178     173.079E-06     188.838E-06
             665             179     113.470E-06     97.7066E-06
             660             179     113.470E-06     97.7066E-06
             670             180     80.5978E-06     116.277E-06
             665             180     80.5978E-06     116.277E-06
             670             181     104.284E-06     136.057E-06
             669             181     104.284E-06     136.057E-06
             669             182     160.881E-06     166.462E-06
             668             182     160.881E-06     166.462E-06
             667             183     251.725E-06     251.224E-06
             668             183     251.725E-06     251.224E-06
             666             184     318.500E-06     312.832E-06
             667             184     318.500E-06     312.832E-06
            1647             185     342.665E-06     336.235E-06
             666             185     342.665E-06     336.235E-06
             661             185     342.665E-06     336.235E-06
            1642             185     342.665E-06     336.235E-06
            1642             186     345.324E-06     338.561E-06
             656             186     345.324E-06     338.561E-06
            1637             186     345.324E-06     338.561E-06
             661             186     345.324E-06     338.561E-06
             651             187     341.559E-06     340.133E-06
            1632             187     341.559E-06     340.133E-06
            1637             187     341.559E-06     340.133E-06
             656             187     341.559E-06     340.133E-06
             651             188     345.086E-06     342.682E-06
            1632             188     345.086E-06     342.682E-06
            1627             188     345.086E-06     342.682E-06
             646             188     345.086E-06     342.682E-06
             646             189     343.667E-06     335.388E-06
            1622             189     343.667E-06     335.388E-06
            1627             189     343.667E-06     335.388E-06
             641             189     343.667E-06     335.388E-06
             672             190     24.3396E-03     24.4313E-03
            1622             190     24.3396E-03     24.4313E-03
            1621             190     24.3396E-03     24.4313E-03
             671             190     24.3396E-03     24.4313E-03
            1621             191     21.9804E-03     22.0890E-03
             673             191     21.9804E-03     22.0890E-03
            1620             191     21.9804E-03     22.0890E-03
             672             191     21.9804E-03     22.0890E-03
             673             192     18.0112E-03     18.1488E-03
             674             192     18.0112E-03     18.1488E-03
            1619             192     18.0112E-03     18.1488E-03
            1620             192     18.0112E-03     18.1488E-03
            1619             193     12.8959E-03     13.0464E-03
             675             193     12.8959E-03     13.0464E-03
            1618             193     12.8959E-03     13.0464E-03
             674             193     12.8959E-03     13.0464E-03
             675             194     19.0200E-03     21.9763E-03
             680             194     19.0200E-03     21.9763E-03
             685             195     13.7123E-03     18.1572E-03
             680             195     13.7123E-03     18.1572E-03
             685             196     19.1378E-03     19.3574E-03
             690             196     19.1378E-03     19.3574E-03
             690             197     38.6393E-03     34.9105E-03
             695             197     38.6393E-03     34.9105E-03
             695             198     53.1642E-03     58.0735E-03
             700             198     53.1642E-03     58.0735E-03
             700             199     79.0049E-03     75.0625E-03
             705             199     79.0049E-03     75.0625E-03
             710             200     99.0849E-03     98.7516E-03
             705             200     99.0849E-03     98.7516E-03
             710             201     83.9559E-03     92.9925E-03
             715             201     83.9559E-03     92.9925E-03
             720             202     77.5996E-03     73.7615E-03
             715             202     77.5996E-03     73.7615E-03
             725             203     95.1610E-03     89.9884E-03
             720             203     95.1610E-03     89.9884E-03
             725             204     108.670E-03     115.526E-03
             730             204     108.670E-03     115.526E-03
             735             205     138.876E-03     132.270E-03
             730             205     138.876E-03     132.270E-03
             735             206     160.877E-03     158.594E-03
             740             206     160.877E-03     158.594E-03
             745             207     143.147E-03     159.197E-03
             740             207     143.147E-03     159.197E-03
             745             208     142.420E-03     134.356E-03
             750             208     142.420E-03     134.356E-03
             755             209     154.770E-03     152.551E-03
             750             209     154.770E-03     152.551E-03
             760             210     171.269E-03     169.665E-03
             755             210     171.269E-03     169.665E-03
             765             211     186.174E-03     193.318E-03
             760             211     186.174E-03     193.318E-03
             765             212     218.164E-03     210.556E-03
             770             212     218.164E-03     210.556E-03
             770             213     242.296E-03     237.144E-03
             775             213     242.296E-03     237.144E-03
             775             214     217.247E-03     241.760E-03
             780             214     217.247E-03     241.760E-03
             785             215     219.618E-03     208.859E-03
             780             215     219.618E-03     208.859E-03
             790             216     230.175E-03     226.000E-03
             785             216     230.175E-03     226.000E-03
             795             217     243.847E-03     243.346E-03
             790             217     243.847E-03     243.346E-03
             795             218     258.910E-03     267.244E-03
             800             218     258.910E-03     267.244E-03
             805             219     294.267E-03     284.642E-03
             800             219     294.267E-03     284.642E-03
             805             220     320.744E-03     312.926E-03
             810             220     320.744E-03     312.926E-03
             810             221     290.326E-03     322.578E-03
             815             221     290.326E-03     322.578E-03
             820             222     295.469E-03     285.642E-03
             815             222     295.469E-03     285.642E-03
             825             223     311.294E-03     295.266E-03
             820             223     311.294E-03     295.266E-03
             825             224     310.122E-03     329.865E-03
             830             224     310.122E-03     329.865E-03
             835             225     356.466E-03     338.959E-03
             830             225     356.466E-03     338.959E-03
             840             226     382.010E-03     373.887E-03
             835             226     382.010E-03     373.887E-03
             839             227     322.529E-03     359.917E-03
             840             227     322.529E-03     359.917E-03
            2724             227     322.529E-03     359.917E-03
            2725             227     322.529E-03     359.917E-03
            2723             228     263.226E-03     300.063E-03
            2724             228     263.226E-03     300.063E-03
             838             228     263.226E-03     300.063E-03
             839             228     263.226E-03     300.063E-03
             838             229     192.381E-03     211.385E-03
            2723             229     192.381E-03     211.385E-03
             837             229     192.381E-03     211.385E-03
            2722             229     192.381E-03     211.385E-03
            2721             230     109.954E-03     114.168E-03
            2722             230     109.954E-03     114.168E-03
             837             230     109.954E-03     114.168E-03
             836             230     109.954E-03     114.168E-03
             836             231     98.5025E-03     94.8572E-03
            2027             231     98.5025E-03     94.8572E-03
             831             231     98.5025E-03     94.8572E-03
            2022             231     98.5025E-03     94.8572E-03
            2022             232     99.8161E-03     102.476E-03
             826             232     99.8161E-03     102.476E-03
             831             232     99.8161E-03     102.476E-03
            2017             232     99.8161E-03     102.476E-03
             821             233     97.9495E-03     102.239E-03
            2017             233     97.9495E-03     102.239E-03
             826             233     97.9495E-03     102.239E-03
            2012             233     97.9495E-03     102.239E-03
            2007             234     100.768E-03     95.8418E-03
             816             234     100.768E-03     95.8418E-03
             821             234     100.768E-03     95.8418E-03
            2012             234     100.768E-03     95.8418E-03
             811             235     97.4508E-03     96.9182E-03
            2007             235     97.4508E-03     96.9182E-03
             816             235     97.4508E-03     96.9182E-03
            2002             235     97.4508E-03     96.9182E-03
            1997             236     91.3089E-03     93.3871E-03
             806             236     91.3089E-03     93.3871E-03
             811             236     91.3089E-03     93.3871E-03
            2002             236     91.3089E-03     93.3871E-03
             801             237     93.1144E-03     90.3968E-03
            1992             237     93.1144E-03     90.3968E-03
             806             237     93.1144E-03     90.3968E-03
            1997             237     93.1144E-03     90.3968E-03
            1987             238     94.0399E-03     96.9423E-03
             801             238     94.0399E-03     96.9423E-03
             796             238     94.0399E-03     96.9423E-03
            1992             238     94.0399E-03     96.9423E-03
            1982             239     91.8685E-03     95.8409E-03
             791             239     91.8685E-03     95.8409E-03
            1987             239     91.8685E-03     95.8409E-03
             796             239     91.8685E-03     95.8409E-03
            1977             240     94.6513E-03     92.2889E-03
             786             240     94.6513E-03     92.2889E-03
            1982             240     94.6513E-03     92.2889E-03
             791             240     94.6513E-03     92.2889E-03
            1977             241     93.3109E-03     89.1871E-03
             781             241     93.3109E-03     89.1871E-03
             786             241     93.3109E-03     89.1871E-03
            1972             241     93.3109E-03     89.1871E-03
             776             242     90.7454E-03     89.5385E-03
             781             242     90.7454E-03     89.5385E-03
            1972             242     90.7454E-03     89.5385E-03
            1967             242     90.7454E-03     89.5385E-03
            1967             243     87.0174E-03     87.3278E-03
             776             243     87.0174E-03     87.3278E-03
             771             243     87.0174E-03     87.3278E-03
            1962             243     87.0174E-03     87.3278E-03
             771             244     87.5580E-03     85.3146E-03
            1962             244     87.5580E-03     85.3146E-03
            1957             244     87.5580E-03     85.3146E-03
             766             244     87.5580E-03     85.3146E-03
            1957             245     87.9374E-03     90.1650E-03
            1952             245     87.9374E-03     90.1650E-03
             761             245     87.9374E-03     90.1650E-03
             766             245     87.9374E-03     90.1650E-03
             756             246     86.1963E-03     88.8187E-03
            1947             246     86.1963E-03     88.8187E-03
             761             246     86.1963E-03     88.8187E-03
            1952             246     86.1963E-03     88.8187E-03
            1942             247     88.2821E-03     86.1100E-03
             756             247     88.2821E-03     86.1100E-03
             751             247     88.2821E-03     86.1100E-03
            1947             247     88.2821E-03     86.1100E-03
             751             248     87.3537E-03     84.3249E-03
            1942             248     87.3537E-03     84.3249E-03
            1937             248     87.3537E-03     84.3249E-03
             746             248     87.3537E-03     84.3249E-03
            1932             249     85.7248E-03     84.6611E-03
             746             249     85.7248E-03     84.6611E-03
            1937             249     85.7248E-03     84.6611E-03
             741             249     85.7248E-03     84.6611E-03
             741             250     82.9119E-03     82.4917E-03
            1932             250     82.9119E-03     82.4917E-03
             736             250     82.9119E-03     82.4917E-03
            1927             250     82.9119E-03     82.4917E-03
            1927             251     82.6936E-03     80.7438E-03
             736             251     82.6936E-03     80.7438E-03
            1922             251     82.6936E-03     80.7438E-03
             731             251     82.6936E-03     80.7438E-03
            1917             252     82.9248E-03     83.8185E-03
            1922             252     82.9248E-03     83.8185E-03
             731             252     82.9248E-03     83.8185E-03
             726             252     82.9248E-03     83.8185E-03
             726             253     82.1362E-03     82.7802E-03
            1912             253     82.1362E-03     82.7802E-03
             721             253     82.1362E-03     82.7802E-03
            1917             253     82.1362E-03     82.7802E-03
             721             254     83.2519E-03     81.0656E-03
            1907             254     83.2519E-03     81.0656E-03
            1912             254     83.2519E-03     81.0656E-03
             716             254     83.2519E-03     81.0656E-03
            1907             255     82.1792E-03     81.5530E-03
            1902             255     82.1792E-03     81.5530E-03
             711             255     82.1792E-03     81.5530E-03
             716             255     82.1792E-03     81.5530E-03
            1902             256     80.3745E-03     79.8332E-03
             706             256     80.3745E-03     79.8332E-03
             711             256     80.3745E-03     79.8332E-03
            1897             256     80.3745E-03     79.8332E-03
             706             257     80.7678E-03     79.3028E-03
            1892             257     80.7678E-03     79.3028E-03
            1897             257     80.7678E-03     79.3028E-03
             701             257     80.7678E-03     79.3028E-03
             701             258     80.7978E-03     81.3364E-03
            1887             258     80.7978E-03     81.3364E-03
             696             258     80.7978E-03     81.3364E-03
            1892             258     80.7978E-03     81.3364E-03
            1882             259     80.0321E-03     80.2818E-03
            1887             259     80.0321E-03     80.2818E-03
             696             259     80.0321E-03     80.2818E-03
             691             259     80.0321E-03     80.2818E-03
            1877             260     80.5994E-03     79.5288E-03
            1882             260     80.5994E-03     79.5288E-03
             686             260     80.5994E-03     79.5288E-03
             691             260     80.5994E-03     79.5288E-03
             686             261     80.6262E-03     79.7387E-03
            1872             261     80.6262E-03     79.7387E-03
             681             261     80.6262E-03     79.7387E-03
            1877             261     80.6262E-03     79.7387E-03
             676             262     80.2501E-03     79.1226E-03
            1872             262     80.2501E-03     79.1226E-03
             681             262     80.2501E-03     79.1226E-03
            1867             262     80.2501E-03     79.1226E-03
             676             263     64.5863E-03     64.1940E-03
             671             263     64.5863E-03     64.1940E-03
            1867             263     64.5863E-03     64.1940E-03
            1862             263     64.5863E-03     64.1940E-03
            1648             314     351.863E-03     364.658E-03
            1653             314     351.863E-03     364.658E-03
            1653             315     373.624E-03     374.848E-03
            1658             315     373.624E-03     374.848E-03
            1663             316     416.761E-03     385.123E-03
            1658             316     416.761E-03     385.123E-03
            1663             317     428.034E-03     428.401E-03
            1668             317     428.034E-03     428.401E-03
            1646             358     318.500E-06     312.832E-06
            1647             358     318.500E-06     312.832E-06
            1646             359     251.725E-06     251.224E-06
            1645             359     251.725E-06     251.224E-06
            1644             360     160.881E-06     166.462E-06
            1645             360     160.881E-06     166.462E-06
            1643             361     104.284E-06     136.057E-06
            1644             361     104.284E-06     136.057E-06
            2023             362     337.898E-03     376.432E-03
            1649             362     337.898E-03     376.432E-03
            2024             362     337.898E-03     376.432E-03
            1648             362     337.898E-03     376.432E-03
            1650             363     280.485E-03     319.581E-03
            2025             363     280.485E-03     319.581E-03
            1649             363     280.485E-03     319.581E-03
            2024             363     280.485E-03     319.581E-03
            2026             364     211.085E-03     232.950E-03
            1650             364     211.085E-03     232.950E-03
            1651             364     211.085E-03     232.950E-03
            2025             364     211.085E-03     232.950E-03
            2027             365     127.460E-03     134.533E-03
            1651             365     127.460E-03     134.533E-03
            1652             365     127.460E-03     134.533E-03
            2026             365     127.460E-03     134.533E-03
            2726             366     66.7404E-03     70.2971E-03
            1652             366     66.7404E-03     70.2971E-03
            1657             366     66.7404E-03     70.2971E-03
            2721             366     66.7404E-03     70.2971E-03
            2731             367     73.1115E-03     77.7082E-03
            1662             367     73.1115E-03     77.7082E-03
            2726             367     73.1115E-03     77.7082E-03
            1657             367     73.1115E-03     77.7082E-03
            1667             368     79.8647E-03     76.9121E-03
            1662             368     79.8647E-03     76.9121E-03
            2736             368     79.8647E-03     76.9121E-03
            2731             368     79.8647E-03     76.9121E-03
            2741             369     77.8641E-03     75.5030E-03
            1672             369     77.8641E-03     75.5030E-03
            2736             369     77.8641E-03     75.5030E-03
            1667             369     77.8641E-03     75.5030E-03
            2148             370     155.555E-03     160.104E-03
            1672             370     155.555E-03     160.104E-03
            1671             370     155.555E-03     160.104E-03
            2149             370     155.555E-03     160.104E-03
            2147             371     234.265E-03     255.974E-03
            1671             371     234.265E-03     255.974E-03
            2148             371     234.265E-03     255.974E-03
            1670             371     234.265E-03     255.974E-03
            1670             372     303.218E-03     344.606E-03
            2146             372     303.218E-03     344.606E-03
            2147             372     303.218E-03     344.606E-03
            1669             372     303.218E-03     344.606E-03
            2145             373     369.110E-03     416.186E-03
            1668             373     369.110E-03     416.186E-03
            1669             373     369.110E-03     416.186E-03
            2146             373     369.110E-03     416.186E-03
            2740             389     454.827E-03     449.833E-03
            2745             389     454.827E-03     449.833E-03
            2735             390     424.504E-03     395.080E-03
            2740             390     424.504E-03     395.080E-03
            2735             391     361.493E-03     369.571E-03
            2730             391     361.493E-03     369.571E-03
            2725             392     338.032E-03     352.111E-03
            2730             392     338.032E-03     352.111E-03
            2145             393     368.018E-03     374.001E-03
            2150             393     368.018E-03     374.001E-03
            2155             394     350.006E-03     367.785E-03
            2150             394     350.006E-03     367.785E-03
            2160             395     355.497E-03     351.704E-03
            2155             395     355.497E-03     351.704E-03
            2165             396     300.474E-03     270.312E-03
            2160             396     300.474E-03     270.312E-03
            2741             416     159.915E-03     173.941E-03
            2742             416     159.915E-03     173.941E-03
            1834             416     159.915E-03     173.941E-03
            1833             416     159.915E-03     173.941E-03
            1834             417     239.530E-03     270.798E-03
            1835             417     239.530E-03     270.798E-03
            2743             417     239.530E-03     270.798E-03
            2742             417     239.530E-03     270.798E-03
            2744             418     311.905E-03     359.906E-03
            2743             418     311.905E-03     359.906E-03
            1836             418     311.905E-03     359.906E-03
            1835             418     311.905E-03     359.906E-03
            1837             419     384.466E-03     432.473E-03
            1836             419     384.466E-03     432.473E-03
            2744             419     384.466E-03     432.473E-03
            2745             419     384.466E-03     432.473E-03
            1837             420     376.654E-03     382.588E-03
            1842             420     376.654E-03     382.588E-03
            1842             421     359.307E-03     376.779E-03
            1847             421     359.307E-03     376.779E-03
            1852             422     364.952E-03     360.261E-03
            1847             422     364.952E-03     360.261E-03
            1852             423     306.387E-03     276.324E-03
            1857             423     306.387E-03     276.324E-03
            1856             424     248.902E-03     295.542E-03
            1857             424     248.902E-03     295.542E-03
            2174             424     248.902E-03     295.542E-03
            2173             424     248.902E-03     295.542E-03
            2172             425     227.116E-03     272.644E-03
            2173             425     227.116E-03     272.644E-03
            1855             425     227.116E-03     272.644E-03
            1856             425     227.116E-03     272.644E-03
            2171             426     213.407E-03     235.930E-03
            1854             426     213.407E-03     235.930E-03
            2172             426     213.407E-03     235.930E-03
            1855             426     213.407E-03     235.930E-03
            1854             427     198.485E-03     205.991E-03
            2171             427     198.485E-03     205.991E-03
            1853             427     198.485E-03     205.991E-03
            2170             427     198.485E-03     205.991E-03
            2164             428     198.811E-03     200.141E-03
            1848             428     198.811E-03     200.141E-03
            1853             428     198.811E-03     200.141E-03
            2169             428     198.811E-03     200.141E-03
            2164             429     201.151E-03     193.535E-03
            2159             429     201.151E-03     193.535E-03
            1848             429     201.151E-03     193.535E-03
            1843             429     201.151E-03     193.535E-03
            1843             430     213.615E-03     208.585E-03
            1838             430     213.615E-03     208.585E-03
            2159             430     213.615E-03     208.585E-03
            2154             430     213.615E-03     208.585E-03
            2149             431     199.118E-03     196.976E-03
            2154             431     199.118E-03     196.976E-03
            1833             431     199.118E-03     196.976E-03
            1838             431     199.118E-03     196.976E-03
            2168             440     198.347E-03     204.620E-03
            2767             440     198.347E-03     204.620E-03
            2169             440     198.347E-03     204.620E-03
            2768             440     198.347E-03     204.620E-03
            2168             441     212.753E-03     233.340E-03
            2767             441     212.753E-03     233.340E-03
            2167             441     212.753E-03     233.340E-03
            2766             441     212.753E-03     233.340E-03
            2765             442     225.331E-03     268.725E-03
            2167             442     225.331E-03     268.725E-03
            2166             442     225.331E-03     268.725E-03
            2766             442     225.331E-03     268.725E-03
            2166             443     245.276E-03     290.300E-03
            2165             443     245.276E-03     290.300E-03
            2764             443     245.276E-03     290.300E-03
            2765             443     245.276E-03     290.300E-03
            2174             444     277.822E-03     276.753E-03
            2179             444     277.822E-03     276.753E-03
            2179             445     225.536E-03     196.623E-03
            2184             445     225.536E-03     196.623E-03
            2189             446     211.516E-03     240.276E-03
            2184             446     211.516E-03     240.276E-03
            2194             447     248.967E-03     247.563E-03
            2189             447     248.967E-03     247.563E-03
            2194             448     198.782E-03     188.565E-03
            2199             448     198.782E-03     188.565E-03
            2204             449     133.883E-03     146.185E-03
            2199             449     133.883E-03     146.185E-03
            2204             450     97.1849E-03     88.4096E-03
            2209             450     97.1849E-03     88.4096E-03
            2214             451     42.1483E-03     47.3431E-03
            2209             451     42.1483E-03     47.3431E-03
            2219             452     22.0575E-03     39.3809E-03
            2214             452     22.0575E-03     39.3809E-03
            2224             453     35.6058E-03     45.3881E-03
            2219             453     35.6058E-03     45.3881E-03
            3190             454     26.9527E-03     27.2525E-03
            2224             454     26.9527E-03     27.2525E-03
            3191             454     26.9527E-03     27.2525E-03
            2223             454     26.9527E-03     27.2525E-03
            2222             455     40.5074E-03     40.7891E-03
            3190             455     40.5074E-03     40.7891E-03
            2223             455     40.5074E-03     40.7891E-03
            3189             455     40.5074E-03     40.7891E-03
            2222             456     51.6192E-03     51.8685E-03
            2221             456     51.6192E-03     51.8685E-03
            3188             456     51.6192E-03     51.8685E-03
            3189             456     51.6192E-03     51.8685E-03
            3188             457     59.0290E-03     59.2596E-03
            2221             457     59.0290E-03     59.2596E-03
            3187             457     59.0290E-03     59.2596E-03
            2220             457     59.0290E-03     59.2596E-03
            2818             458     161.140E-03     160.221E-03
            2813             458     161.140E-03     160.221E-03
            2215             458     161.140E-03     160.221E-03
            2220             458     161.140E-03     160.221E-03
            2210             459     199.768E-03     197.073E-03
            2813             459     199.768E-03     197.073E-03
            2808             459     199.768E-03     197.073E-03
            2215             459     199.768E-03     197.073E-03
            2803             460     200.770E-03     198.603E-03
            2205             460     200.770E-03     198.603E-03
            2210             460     200.770E-03     198.603E-03
            2808             460     200.770E-03     198.603E-03
            2200             461     200.631E-03     198.046E-03
            2205             461     200.631E-03     198.046E-03
            2798             461     200.631E-03     198.046E-03
            2803             461     200.631E-03     198.046E-03
            2793             462     199.212E-03     199.804E-03
            2798             462     199.212E-03     199.804E-03
            2195             462     199.212E-03     199.804E-03
            2200             462     199.212E-03     199.804E-03
            2788             463     201.032E-03     202.208E-03
            2195             463     201.032E-03     202.208E-03
            2190             463     201.032E-03     202.208E-03
            2793             463     201.032E-03     202.208E-03
            2783             464     200.786E-03     197.095E-03
            2190             464     200.786E-03     197.095E-03
            2788             464     200.786E-03     197.095E-03
            2185             464     200.786E-03     197.095E-03
            2778             465     194.001E-03     195.878E-03
            2783             465     194.001E-03     195.878E-03
            2180             465     194.001E-03     195.878E-03
            2185             465     194.001E-03     195.878E-03
            2180             466     196.008E-03     196.653E-03
            2175             466     196.008E-03     196.653E-03
            2778             466     196.008E-03     196.653E-03
            2773             466     196.008E-03     196.653E-03
            2773             467     197.684E-03     190.727E-03
            2175             467     197.684E-03     190.727E-03
            2768             467     197.684E-03     190.727E-03
            2170             467     197.684E-03     190.727E-03
            2769             470     270.720E-03     270.415E-03
            2764             470     270.720E-03     270.415E-03
            2769             471     221.397E-03     192.384E-03
            2774             471     221.397E-03     192.384E-03
            2774             472     208.315E-03     236.285E-03
            2779             472     208.315E-03     236.285E-03
            2779             473     243.665E-03     242.844E-03
            2784             473     243.665E-03     242.844E-03
            2789             474     194.544E-03     184.295E-03
            2784             474     194.544E-03     184.295E-03
            2789             475     130.377E-03     142.625E-03
            2794             475     130.377E-03     142.625E-03
            2799             476     94.3117E-03     85.2291E-03
            2794             476     94.3117E-03     85.2291E-03
            2799             477     44.2021E-03     45.9611E-03
            2804             477     44.2021E-03     45.9611E-03
            2809             478     29.2968E-03     42.5946E-03
            2804             478     29.2968E-03     42.5946E-03
            2809             479     43.3724E-03     51.7977E-03
            2814             479     43.3724E-03     51.7977E-03
            2857             562     400.369E-06     398.709E-06
            2852             562     400.369E-06     398.709E-06
            2857             563     292.517E-06     282.471E-06
            2862             563     292.517E-06     282.471E-06
            2867             564     172.142E-06     187.986E-06
            2862             564     172.142E-06     187.986E-06
            2872             565     113.218E-06     97.4709E-06
            2867             565     113.218E-06     97.4709E-06
            2872             566     80.7501E-06     116.273E-06
            2877             566     80.7501E-06     116.273E-06
            3211             596     80.7501E-06     116.273E-06
            3216             596     80.7501E-06     116.273E-06
            3206             597     113.218E-06     97.4709E-06
            3211             597     113.218E-06     97.4709E-06
            3206             598     172.142E-06     187.986E-06
            3201             598     172.142E-06     187.986E-06
            3196             599     292.517E-06     282.471E-06
            3201             599     292.517E-06     282.471E-06
            3196             600     400.369E-06     398.709E-06
            3191             600     400.369E-06     398.709E-06
            2817             601     60.1586E-03     60.3890E-03
            2856             601     60.1586E-03     60.3890E-03
            2855             601     60.1586E-03     60.3890E-03
            2818             601     60.1586E-03     60.3890E-03
            2854             602     53.7626E-03     54.0114E-03
            2816             602     53.7626E-03     54.0114E-03
            2817             602     53.7626E-03     54.0114E-03
            2855             602     53.7626E-03     54.0114E-03
            2853             603     43.4389E-03     43.7197E-03
            2816             603     43.4389E-03     43.7197E-03
            2854             603     43.4389E-03     43.7197E-03
            2815             603     43.4389E-03     43.7197E-03
            2852             604     30.3254E-03     30.6234E-03
            2815             604     30.3254E-03     30.6234E-03
            2814             604     30.3254E-03     30.6234E-03
            2853             604     30.3254E-03     30.6234E-03
            3192             607     343.500E-06     335.182E-06
            2861             607     343.500E-06     335.182E-06
            3187             607     343.500E-06     335.182E-06
            2856             607     343.500E-06     335.182E-06
            2866             608     344.966E-06     342.488E-06
            3197             608     344.966E-06     342.488E-06
            3192             608     344.966E-06     342.488E-06
            2861             608     344.966E-06     342.488E-06
            3202             609     341.441E-06     340.042E-06
            2871             609     341.441E-06     340.042E-06
            2866             609     341.441E-06     340.042E-06
            3197             609     341.441E-06     340.042E-06
            2871             610     345.189E-06     338.446E-06
            3202             610     345.189E-06     338.446E-06
            3207             610     345.189E-06     338.446E-06
            2876             610     345.189E-06     338.446E-06
            2876             611     342.533E-06     336.117E-06
            3212             611     342.533E-06     336.117E-06
            3207             611     342.533E-06     336.117E-06
            2881             611     342.533E-06     336.117E-06
            2880             612     318.431E-06     312.801E-06
            2881             612     318.431E-06     312.801E-06
            2880             613     251.767E-06     251.230E-06
            2879             613     251.767E-06     251.230E-06
            2879             614     160.872E-06     166.374E-06
            2878             614     160.872E-06     166.374E-06
            2877             615     104.128E-06     136.001E-06
            2878             615     104.128E-06     136.001E-06
            3216             631     104.128E-06     136.001E-06
            3215             631     104.128E-06     136.001E-06
            3215             632     160.872E-06     166.374E-06
            3214             632     160.872E-06     166.374E-06
            3213             633     251.767E-06     251.230E-06
            3214             633     251.767E-06     251.230E-06
            3213             634     318.431E-06     312.801E-06
            3212             634     318.431E-06     312.801E-06
             647            1205     340.317E-06     330.435E-06
             641            1205     340.317E-06     330.435E-06
             642            1205     340.317E-06     330.435E-06
             646            1205     340.317E-06     330.435E-06
             648            1206     323.403E-06     313.472E-06
             647            1206     323.403E-06     313.472E-06
             643            1206     323.403E-06     313.472E-06
             642            1206     323.403E-06     313.472E-06
             649            1207     309.194E-06     306.703E-06
             648            1207     309.194E-06     306.703E-06
             643            1207     309.194E-06     306.703E-06
             644            1207     309.194E-06     306.703E-06
             645            1208     355.514E-06     356.304E-06
             650            1208     355.514E-06     356.304E-06
             644            1208     355.514E-06     356.304E-06
             649            1208     355.514E-06     356.304E-06
             646            1209     336.654E-06     330.811E-06
             651            1209     336.654E-06     330.811E-06
             647            1209     336.654E-06     330.811E-06
             652            1209     336.654E-06     330.811E-06
             648            1210     309.763E-06     294.481E-06
             652            1210     309.763E-06     294.481E-06
             653            1210     309.763E-06     294.481E-06
             647            1210     309.763E-06     294.481E-06
             654            1211     277.145E-06     258.109E-06
             648            1211     277.145E-06     258.109E-06
             649            1211     277.145E-06     258.109E-06
             653            1211     277.145E-06     258.109E-06
             649            1212     278.376E-06     265.088E-06
             654            1212     278.376E-06     265.088E-06
             650            1212     278.376E-06     265.088E-06
             655            1212     278.376E-06     265.088E-06
             657            1213     323.061E-06     324.742E-06
             656            1213     323.061E-06     324.742E-06
             652            1213     323.061E-06     324.742E-06
             651            1213     323.061E-06     324.742E-06
             657            1214     274.166E-06     282.384E-06
             658            1214     274.166E-06     282.384E-06
             653            1214     274.166E-06     282.384E-06
             652            1214     274.166E-06     282.384E-06
             653            1215     203.454E-06     216.928E-06
             659            1215     203.454E-06     216.928E-06
             658            1215     203.454E-06     216.928E-06
             654            1215     203.454E-06     216.928E-06
             659            1216     168.109E-06     183.638E-06
             654            1216     168.109E-06     183.638E-06
             660            1216     168.109E-06     183.638E-06
             655            1216     168.109E-06     183.638E-06
             661            1217     323.963E-06     319.155E-06
             662            1217     323.963E-06     319.155E-06
             657            1217     323.963E-06     319.155E-06
             656            1217     323.963E-06     319.155E-06
             657            1218     265.593E-06     264.713E-06
             658            1218     265.593E-06     264.713E-06
             663            1218     265.593E-06     264.713E-06
             662            1218     265.593E-06     264.713E-06
             658            1219     179.501E-06     173.225E-06
             663            1219     179.501E-06     173.225E-06
             664            1219     179.501E-06     173.225E-06
             659            1219     179.501E-06     173.225E-06
             665            1220     121.942E-06     107.240E-06
             660            1220     121.942E-06     107.240E-06
             664            1220     121.942E-06     107.240E-06
             659            1220     121.942E-06     107.240E-06
             661            1221     321.553E-06     315.907E-06
             667            1221     321.553E-06     315.907E-06
             666            1221     321.553E-06     315.907E-06
             662            1221     321.553E-06     315.907E-06
             662            1222     256.476E-06     257.073E-06
             667            1222     256.476E-06     257.073E-06
             663            1222     256.476E-06     257.073E-06
             668            1222     256.476E-06     257.073E-06
             669            1223     162.097E-06     170.795E-06
             663            1223     162.097E-06     170.795E-06
             664            1223     162.097E-06     170.795E-06
             668            1223     162.097E-06     170.795E-06
             664            1224     96.1412E-06     119.650E-06
             670            1224     96.1412E-06     119.650E-06
             665            1224     96.1412E-06     119.650E-06
             669            1224     96.1412E-06     119.650E-06
             672            1225     62.4633E-03     62.1035E-03
             677            1225     62.4633E-03     62.1035E-03
             671            1225     62.4633E-03     62.1035E-03
             676            1225     62.4633E-03     62.1035E-03
             673            1226     54.0927E-03     54.1735E-03
             672            1226     54.0927E-03     54.1735E-03
             677            1226     54.0927E-03     54.1735E-03
             678            1226     54.0927E-03     54.1735E-03
             678            1227     42.1425E-03     42.4597E-03
             673            1227     42.1425E-03     42.4597E-03
             679            1227     42.1425E-03     42.4597E-03
             674            1227     42.1425E-03     42.4597E-03
             679            1228     27.4652E-03     29.0177E-03
             675            1228     27.4652E-03     29.0177E-03
             674            1228     27.4652E-03     29.0177E-03
             680            1228     27.4652E-03     29.0177E-03
             676            1229     77.0025E-03     76.1136E-03
             677            1229     77.0025E-03     76.1136E-03
             681            1229     77.0025E-03     76.1136E-03
             682            1229     77.0025E-03     76.1136E-03
             682            1230     64.7927E-03     65.6502E-03
             677            1230     64.7927E-03     65.6502E-03
             683            1230     64.7927E-03     65.6502E-03
             678            1230     64.7927E-03     65.6502E-03
             683            1231     48.6130E-03     50.1461E-03
             684            1231     48.6130E-03     50.1461E-03
             678            1231     48.6130E-03     50.1461E-03
             679            1231     48.6130E-03     50.1461E-03
             680            1232     27.2377E-03     29.8262E-03
             685            1232     27.2377E-03     29.8262E-03
             679            1232     27.2377E-03     29.8262E-03
             684            1232     27.2377E-03     29.8262E-03
             681            1233     77.3822E-03     77.0900E-03
             687            1233     77.3822E-03     77.0900E-03
             686            1233     77.3822E-03     77.0900E-03
             682            1233     77.3822E-03     77.0900E-03
             682            1234     66.7774E-03     67.9801E-03
             688            1234     66.7774E-03     67.9801E-03
             683            1234     66.7774E-03     67.9801E-03
             687            1234     66.7774E-03     67.9801E-03
             688            1235     50.8353E-03     52.1149E-03
             683            1235     50.8353E-03     52.1149E-03
             684            1235     50.8353E-03     52.1149E-03
             689            1235     50.8353E-03     52.1149E-03
             690            1236     30.3991E-03     30.7394E-03
             684            1236     30.3991E-03     30.7394E-03
             689            1236     30.3991E-03     30.7394E-03
             685            1236     30.3991E-03     30.7394E-03
             686            1237     78.0242E-03     77.7823E-03
             687            1237     78.0242E-03     77.7823E-03
             691            1237     78.0242E-03     77.7823E-03
             692            1237     78.0242E-03     77.7823E-03
             688            1238     69.9683E-03     69.6732E-03
             687            1238     69.9683E-03     69.6732E-03
             692            1238     69.9683E-03     69.6732E-03
             693            1238     69.9683E-03     69.6732E-03
             688            1239     56.8569E-03     54.9326E-03
             693            1239     56.8569E-03     54.9326E-03
             689            1239     56.8569E-03     54.9326E-03
             694            1239     56.8569E-03     54.9326E-03
             689            1240     43.6853E-03     40.4737E-03
             695            1240     43.6853E-03     40.4737E-03
             690            1240     43.6853E-03     40.4737E-03
             694            1240     43.6853E-03     40.4737E-03
             696            1241     78.4036E-03     79.2001E-03
             692            1241     78.4036E-03     79.2001E-03
             697            1241     78.4036E-03     79.2001E-03
             691            1241     78.4036E-03     79.2001E-03
             692            1242     72.1100E-03     74.1558E-03
             697            1242     72.1100E-03     74.1558E-03
             693            1242     72.1100E-03     74.1558E-03
             698            1242     72.1100E-03     74.1558E-03
             694            1243     61.6745E-03     66.2978E-03
             698            1243     61.6745E-03     66.2978E-03
             699            1243     61.6745E-03     66.2978E-03
             693            1243     61.6745E-03     66.2978E-03
             694            1244     54.3334E-03     60.0730E-03
             699            1244     54.3334E-03     60.0730E-03
             695            1244     54.3334E-03     60.0730E-03
             700            1244     54.3334E-03     60.0730E-03
             696            1245     81.3740E-03     80.4903E-03
             697            1245     81.3740E-03     80.4903E-03
             702            1245     81.3740E-03     80.4903E-03
             701            1245     81.3740E-03     80.4903E-03
             698            1246     80.2511E-03     76.7332E-03
             697            1246     80.2511E-03     76.7332E-03
             702            1246     80.2511E-03     76.7332E-03
             703            1246     80.2511E-03     76.7332E-03
             698            1247     77.7779E-03     73.7412E-03
             703            1247     77.7779E-03     73.7412E-03
             704            1247     77.7779E-03     73.7412E-03
             699            1247     77.7779E-03     73.7412E-03
             705            1248     77.9133E-03     74.2312E-03
             699            1248     77.9133E-03     74.2312E-03
             700            1248     77.9133E-03     74.2312E-03
             704            1248     77.9133E-03     74.2312E-03
             702            1249     82.0830E-03     79.8033E-03
             701            1249     82.0830E-03     79.8033E-03
             706            1249     82.0830E-03     79.8033E-03
             707            1249     82.0830E-03     79.8033E-03
             708            1250     83.0238E-03     80.0584E-03
             703            1250     83.0238E-03     80.0584E-03
             707            1250     83.0238E-03     80.0584E-03
             702            1250     83.0238E-03     80.0584E-03
             703            1251     83.9723E-03     82.8703E-03
             708            1251     83.9723E-03     82.8703E-03
             709            1251     83.9723E-03     82.8703E-03
             704            1251     83.9723E-03     82.8703E-03
             704            1252     92.1276E-03     92.2960E-03
             709            1252     92.1276E-03     92.2960E-03
             710            1252     92.1276E-03     92.2960E-03
             705            1252     92.1276E-03     92.2960E-03
             711            1253     80.1105E-03     80.2585E-03
             707            1253     80.1105E-03     80.2585E-03
             712            1253     80.1105E-03     80.2585E-03
             706            1253     80.1105E-03     80.2585E-03
             712            1254     77.8479E-03     83.1320E-03
             707            1254     77.8479E-03     83.1320E-03
             708            1254     77.8479E-03     83.1320E-03
             713            1254     77.8479E-03     83.1320E-03
             714            1255     77.0615E-03     89.8668E-03
             713            1255     77.0615E-03     89.8668E-03
             709            1255     77.0615E-03     89.8668E-03
             708            1255     77.0615E-03     89.8668E-03
             709            1256     80.9920E-03     93.5293E-03
             715            1256     80.9920E-03     93.5293E-03
             710            1256     80.9920E-03     93.5293E-03
             714            1256     80.9920E-03     93.5293E-03
             717            1257     82.0114E-03     81.7119E-03
             716            1257     82.0114E-03     81.7119E-03
             711            1257     82.0114E-03     81.7119E-03
             712            1257     82.0114E-03     81.7119E-03
             712            1258     82.8497E-03     83.4366E-03
             718            1258     82.8497E-03     83.4366E-03
             717            1258     82.8497E-03     83.4366E-03
             713            1258     82.8497E-03     83.4366E-03
             718            1259     86.3464E-03     87.6310E-03
             713            1259     86.3464E-03     87.6310E-03
             719            1259     86.3464E-03     87.6310E-03
             714            1259     86.3464E-03     87.6310E-03
             715            1260     83.1502E-03     81.9163E-03
             720            1260     83.1502E-03     81.9163E-03
             719            1260     83.1502E-03     81.9163E-03
             714            1260     83.1502E-03     81.9163E-03
             717            1261     84.4036E-03     83.1202E-03
             716            1261     84.4036E-03     83.1202E-03
             722            1261     84.4036E-03     83.1202E-03
             721            1261     84.4036E-03     83.1202E-03
             723            1262     89.3069E-03     88.1074E-03
             717            1262     89.3069E-03     88.1074E-03
             722            1262     89.3069E-03     88.1074E-03
             718            1262     89.3069E-03     88.1074E-03
             718            1263     94.0605E-03     92.3529E-03
             724            1263     94.0605E-03     92.3529E-03
             723            1263     94.0605E-03     92.3529E-03
             719            1263     94.0605E-03     92.3529E-03
             720            1264     95.1443E-03     91.8599E-03
             725            1264     95.1443E-03     91.8599E-03
             724            1264     95.1443E-03     91.8599E-03
             719            1264     95.1443E-03     91.8599E-03
             721            1265     84.9568E-03     86.7542E-03
             722            1265     84.9568E-03     86.7542E-03
             726            1265     84.9568E-03     86.7542E-03
             727            1265     84.9568E-03     86.7542E-03
             722            1266     91.5979E-03     96.5961E-03
             727            1266     91.5979E-03     96.5961E-03
             723            1266     91.5979E-03     96.5961E-03
             728            1266     91.5979E-03     96.5961E-03
             723            1267     96.2337E-03     106.404E-03
             724            1267     96.2337E-03     106.404E-03
             728            1267     96.2337E-03     106.404E-03
             729            1267     96.2337E-03     106.404E-03
             725            1268     102.990E-03     113.177E-03
             724            1268     102.990E-03     113.177E-03
             730            1268     102.990E-03     113.177E-03
             729            1268     102.990E-03     113.177E-03
             727            1269     89.7127E-03     88.6762E-03
             726            1269     89.7127E-03     88.6762E-03
             731            1269     89.7127E-03     88.6762E-03
             732            1269     89.7127E-03     88.6762E-03
             732            1270     105.586E-03     99.1743E-03
             728            1270     105.586E-03     99.1743E-03
             727            1270     105.586E-03     99.1743E-03
             733            1270     105.586E-03     99.1743E-03
             728            1271     120.430E-03     113.031E-03
             734            1271     120.430E-03     113.031E-03
             733            1271     120.430E-03     113.031E-03
             729            1271     120.430E-03     113.031E-03
             729            1272     132.906E-03     127.059E-03
             735            1272     132.906E-03     127.059E-03
             734            1272     132.906E-03     127.059E-03
             730            1272     132.906E-03     127.059E-03
             732            1273     90.2719E-03     87.2032E-03
             736            1273     90.2719E-03     87.2032E-03
             731            1273     90.2719E-03     87.2032E-03
             737            1273     90.2719E-03     87.2032E-03
             737            1274     108.534E-03     103.551E-03
             732            1274     108.534E-03     103.551E-03
             738            1274     108.534E-03     103.551E-03
             733            1274     108.534E-03     103.551E-03
             734            1275     127.071E-03     124.915E-03
             739            1275     127.071E-03     124.915E-03
             733            1275     127.071E-03     124.915E-03
             738            1275     127.071E-03     124.915E-03
             734            1276     148.303E-03     147.911E-03
             740            1276     148.303E-03     147.911E-03
             735            1276     148.303E-03     147.911E-03
             739            1276     148.303E-03     147.911E-03
             737            1277     86.7273E-03     88.3471E-03
             736            1277     86.7273E-03     88.3471E-03
             741            1277     86.7273E-03     88.3471E-03
             742            1277     86.7273E-03     88.3471E-03
             743            1278     98.6499E-03     109.638E-03
             738            1278     98.6499E-03     109.638E-03
             737            1278     98.6499E-03     109.638E-03
             742            1278     98.6499E-03     109.638E-03
             738            1279     114.718E-03     138.640E-03
             743            1279     114.718E-03     138.640E-03
             744            1279     114.718E-03     138.640E-03
             739            1279     114.718E-03     138.640E-03
             739            1280     133.149E-03     156.117E-03
             744            1280     133.149E-03     156.117E-03
             740            1280     133.149E-03     156.117E-03
             745            1280     133.149E-03     156.117E-03
             742            1281     90.4268E-03     89.8604E-03
             746            1281     90.4268E-03     89.8604E-03
             741            1281     90.4268E-03     89.8604E-03
             747            1281     90.4268E-03     89.8604E-03
             742            1282     107.578E-03     108.367E-03
             748            1282     107.578E-03     108.367E-03
             747            1282     107.578E-03     108.367E-03
             743            1282     107.578E-03     108.367E-03
             749            1283     131.082E-03     132.277E-03
             748            1283     131.082E-03     132.277E-03
             744            1283     131.082E-03     132.277E-03
             743            1283     131.082E-03     132.277E-03
             749            1284     142.644E-03     138.923E-03
             744            1284     142.644E-03     138.923E-03
             750            1284     142.644E-03     138.923E-03
             745            1284     142.644E-03     138.923E-03
             752            1285     94.3493E-03     93.0701E-03
             747            1285     94.3493E-03     93.0701E-03
             746            1285     94.3493E-03     93.0701E-03
             751            1285     94.3493E-03     93.0701E-03
             748            1286     116.588E-03     115.947E-03
             752            1286     116.588E-03     115.947E-03
             753            1286     116.588E-03     115.947E-03
             747            1286     116.588E-03     115.947E-03
             754            1287     138.364E-03     139.401E-03
             748            1287     138.364E-03     139.401E-03
             753            1287     138.364E-03     139.401E-03
             749            1287     138.364E-03     139.401E-03
             755            1288     150.394E-03     151.227E-03
             749            1288     150.394E-03     151.227E-03
             750            1288     150.394E-03     151.227E-03
             754            1288     150.394E-03     151.227E-03
             751            1289     97.5473E-03     96.7199E-03
             757            1289     97.5473E-03     96.7199E-03
             752            1289     97.5473E-03     96.7199E-03
             756            1289     97.5473E-03     96.7199E-03
             753            1290     121.251E-03     121.301E-03
             758            1290     121.251E-03     121.301E-03
             752            1290     121.251E-03     121.301E-03
             757            1290     121.251E-03     121.301E-03
             759            1291     142.904E-03     145.415E-03
             754            1291     142.904E-03     145.415E-03
             753            1291     142.904E-03     145.415E-03
             758            1291     142.904E-03     145.415E-03
             754            1292     161.447E-03     163.417E-03
             755            1292     161.447E-03     163.417E-03
             760            1292     161.447E-03     163.417E-03
             759            1292     161.447E-03     163.417E-03
             756            1293     98.2776E-03     100.803E-03
             762            1293     98.2776E-03     100.803E-03
             757            1293     98.2776E-03     100.803E-03
             761            1293     98.2776E-03     100.803E-03
             758            1294     126.031E-03     130.594E-03
             762            1294     126.031E-03     130.594E-03
             763            1294     126.031E-03     130.594E-03
             757            1294     126.031E-03     130.594E-03
             758            1295     150.292E-03     161.831E-03
             759            1295     150.292E-03     161.831E-03
             763            1295     150.292E-03     161.831E-03
             764            1295     150.292E-03     161.831E-03
             760            1296     173.475E-03     185.393E-03
             764            1296     173.475E-03     185.393E-03
             765            1296     173.475E-03     185.393E-03
             759            1296     173.475E-03     185.393E-03
             766            1297     105.010E-03     103.162E-03
             762            1297     105.010E-03     103.162E-03
             767            1297     105.010E-03     103.162E-03
             761            1297     105.010E-03     103.162E-03
             768            1298     144.741E-03     135.207E-03
             763            1298     144.741E-03     135.207E-03
             767            1298     144.741E-03     135.207E-03
             762            1298     144.741E-03     135.207E-03
             769            1299     180.015E-03     172.099E-03
             768            1299     180.015E-03     172.099E-03
             763            1299     180.015E-03     172.099E-03
             764            1299     180.015E-03     172.099E-03
             769            1300     206.690E-03     201.365E-03
             765            1300     206.690E-03     201.365E-03
             764            1300     206.690E-03     201.365E-03
             770            1300     206.690E-03     201.365E-03
             767            1301     104.619E-03     100.264E-03
             772            1301     104.619E-03     100.264E-03
             771            1301     104.619E-03     100.264E-03
             766            1301     104.619E-03     100.264E-03
             772            1302     146.856E-03     139.813E-03
             767            1302     146.856E-03     139.813E-03
             768            1302     146.856E-03     139.813E-03
             773            1302     146.856E-03     139.813E-03
             769            1303     188.020E-03     184.818E-03
             773            1303     188.020E-03     184.818E-03
             768            1303     188.020E-03     184.818E-03
             774            1303     188.020E-03     184.818E-03
             770            1304     224.413E-03     222.425E-03
             775            1304     224.413E-03     222.425E-03
             774            1304     224.413E-03     222.425E-03
             769            1304     224.413E-03     222.425E-03
             772            1305     97.6898E-03     101.654E-03
             777            1305     97.6898E-03     101.654E-03
             771            1305     97.6898E-03     101.654E-03
             776            1305     97.6898E-03     101.654E-03
             772            1306     129.360E-03     148.346E-03
             778            1306     129.360E-03     148.346E-03
             773            1306     129.360E-03     148.346E-03
             777            1306     129.360E-03     148.346E-03
             779            1307     165.819E-03     203.752E-03
             774            1307     165.819E-03     203.752E-03
             773            1307     165.819E-03     203.752E-03
             778            1307     165.819E-03     203.752E-03
             780            1308     200.145E-03     235.523E-03
             779            1308     200.145E-03     235.523E-03
             774            1308     200.145E-03     235.523E-03
             775            1308     200.145E-03     235.523E-03
             776            1309     103.864E-03     102.892E-03
             781            1309     103.864E-03     102.892E-03
             782            1309     103.864E-03     102.892E-03
             777            1309     103.864E-03     102.892E-03
             783            1310     143.802E-03     143.516E-03
             782            1310     143.802E-03     143.516E-03
             778            1310     143.802E-03     143.516E-03
             777            1310     143.802E-03     143.516E-03
             783            1311     189.090E-03     189.765E-03
             779            1311     189.090E-03     189.765E-03
             778            1311     189.090E-03     189.765E-03
             784            1311     189.090E-03     189.765E-03
             780            1312     214.745E-03     209.828E-03
             779            1312     214.745E-03     209.828E-03
             785            1312     214.745E-03     209.828E-03
             784            1312     214.745E-03     209.828E-03
             786            1313     109.778E-03     107.348E-03
             782            1313     109.778E-03     107.348E-03
             787            1313     109.778E-03     107.348E-03
             781            1313     109.778E-03     107.348E-03
             788            1314     155.460E-03     152.435E-03
             783            1314     155.460E-03     152.435E-03
             782            1314     155.460E-03     152.435E-03
             787            1314     155.460E-03     152.435E-03
             783            1315     196.879E-03     196.266E-03
             789            1315     196.879E-03     196.266E-03
             784            1315     196.879E-03     196.266E-03
             788            1315     196.879E-03     196.266E-03
             790            1316     221.095E-03     221.100E-03
             789            1316     221.095E-03     221.100E-03
             785            1316     221.095E-03     221.100E-03
             784            1316     221.095E-03     221.100E-03
             792            1317     113.111E-03     112.299E-03
             786            1317     113.111E-03     112.299E-03
             791            1317     113.111E-03     112.299E-03
             787            1317     113.111E-03     112.299E-03
             788            1318     157.847E-03     158.688E-03
             787            1318     157.847E-03     158.688E-03
             792            1318     157.847E-03     158.688E-03
             793            1318     157.847E-03     158.688E-03
             788            1319     196.569E-03     202.060E-03
             794            1319     196.569E-03     202.060E-03
             793            1319     196.569E-03     202.060E-03
             789            1319     196.569E-03     202.060E-03
             789            1320     228.111E-03     233.025E-03
             794            1320     228.111E-03     233.025E-03
             795            1320     228.111E-03     233.025E-03
             790            1320     228.111E-03     233.025E-03
             791            1321     113.694E-03     117.154E-03
             797            1321     113.694E-03     117.154E-03
             796            1321     113.694E-03     117.154E-03
             792            1321     113.694E-03     117.154E-03
             792            1322     163.093E-03     168.724E-03
             797            1322     163.093E-03     168.724E-03
             793            1322     163.093E-03     168.724E-03
             798            1322     163.093E-03     168.724E-03
             798            1323     204.243E-03     219.010E-03
             799            1323     204.243E-03     219.010E-03
             794            1323     204.243E-03     219.010E-03
             793            1323     204.243E-03     219.010E-03
             799            1324     240.328E-03     255.317E-03
             795            1324     240.328E-03     255.317E-03
             794            1324     240.328E-03     255.317E-03
             800            1324     240.328E-03     255.317E-03
             796            1325     121.773E-03     119.452E-03
             801            1325     121.773E-03     119.452E-03
             797            1325     121.773E-03     119.452E-03
             802            1325     121.773E-03     119.452E-03
             798            1326     185.901E-03     173.525E-03
             797            1326     185.901E-03     173.525E-03
             802            1326     185.901E-03     173.525E-03
             803            1326     185.901E-03     173.525E-03
             804            1327     239.883E-03     230.132E-03
             799            1327     239.883E-03     230.132E-03
             803            1327     239.883E-03     230.132E-03
             798            1327     239.883E-03     230.132E-03
             805            1328     278.289E-03     272.040E-03
             804            1328     278.289E-03     272.040E-03
             799            1328     278.289E-03     272.040E-03
             800            1328     278.289E-03     272.040E-03
             802            1329     120.170E-03     114.828E-03
             801            1329     120.170E-03     114.828E-03
             806            1329     120.170E-03     114.828E-03
             807            1329     120.170E-03     114.828E-03
             802            1330     186.534E-03     177.817E-03
             803            1330     186.534E-03     177.817E-03
             808            1330     186.534E-03     177.817E-03
             807            1330     186.534E-03     177.817E-03
             809            1331     248.142E-03     244.204E-03
             808            1331     248.142E-03     244.204E-03
             803            1331     248.142E-03     244.204E-03
             804            1331     248.142E-03     244.204E-03
             804            1332     297.907E-03     294.749E-03
             810            1332     297.907E-03     294.749E-03
             809            1332     297.907E-03     294.749E-03
             805            1332     297.907E-03     294.749E-03
             811            1333     110.471E-03     117.268E-03
             812            1333     110.471E-03     117.268E-03
             806            1333     110.471E-03     117.268E-03
             807            1333     110.471E-03     117.268E-03
             812            1334     162.203E-03     189.103E-03
             813            1334     162.203E-03     189.103E-03
             807            1334     162.203E-03     189.103E-03
             808            1334     162.203E-03     189.103E-03
             808            1335     216.510E-03     267.680E-03
             809            1335     216.510E-03     267.680E-03
             813            1335     216.510E-03     267.680E-03
             814            1335     216.510E-03     267.680E-03
             815            1336     265.999E-03     312.757E-03
             809            1336     265.999E-03     312.757E-03
             810            1336     265.999E-03     312.757E-03
             814            1336     265.999E-03     312.757E-03
             817            1337     120.582E-03     119.632E-03
             812            1337     120.582E-03     119.632E-03
             816            1337     120.582E-03     119.632E-03
             811            1337     120.582E-03     119.632E-03
             817            1338     184.742E-03     181.941E-03
             818            1338     184.742E-03     181.941E-03
             812            1338     184.742E-03     181.941E-03
             813            1338     184.742E-03     181.941E-03
             814            1339     249.195E-03     249.090E-03
             819            1339     249.195E-03     249.090E-03
             818            1339     249.195E-03     249.090E-03
             813            1339     249.195E-03     249.090E-03
             819            1340     286.299E-03     283.152E-03
             815            1340     286.299E-03     283.152E-03
             814            1340     286.299E-03     283.152E-03
             820            1340     286.299E-03     283.152E-03
             821            1341     128.354E-03     123.513E-03
             817            1341     128.354E-03     123.513E-03
             822            1341     128.354E-03     123.513E-03
             816            1341     128.354E-03     123.513E-03
             817            1342     198.973E-03     188.693E-03
             818            1342     198.973E-03     188.693E-03
             822            1342     198.973E-03     188.693E-03
             823            1342     198.973E-03     188.693E-03
             819            1343     260.389E-03     248.921E-03
             823            1343     260.389E-03     248.921E-03
             824            1343     260.389E-03     248.921E-03
             818            1343     260.389E-03     248.921E-03
             819            1344     297.690E-03     286.078E-03
             824            1344     297.690E-03     286.078E-03
             820            1344     297.690E-03     286.078E-03
             825            1344     297.690E-03     286.078E-03
             821            1345     126.169E-03     133.354E-03
             822            1345     126.169E-03     133.354E-03
             826            1345     126.169E-03     133.354E-03
             827            1345     126.169E-03     133.354E-03
             823            1346     191.121E-03     207.377E-03
             828            1346     191.121E-03     207.377E-03
             827            1346     191.121E-03     207.377E-03
             822            1346     191.121E-03     207.377E-03
             823            1347     241.958E-03     273.557E-03
             829            1347     241.958E-03     273.557E-03
             828            1347     241.958E-03     273.557E-03
             824            1347     241.958E-03     273.557E-03
             824            1348     285.757E-03     316.630E-03
             830            1348     285.757E-03     316.630E-03
             825            1348     285.757E-03     316.630E-03
             829            1348     285.757E-03     316.630E-03
             826            1349     136.059E-03     133.590E-03
             832            1349     136.059E-03     133.590E-03
             831            1349     136.059E-03     133.590E-03
             827            1349     136.059E-03     133.590E-03
             827            1350     220.527E-03     204.204E-03
             832            1350     220.527E-03     204.204E-03
             833            1350     220.527E-03     204.204E-03
             828            1350     220.527E-03     204.204E-03
             829            1351     290.102E-03     272.510E-03
             828            1351     290.102E-03     272.510E-03
             833            1351     290.102E-03     272.510E-03
             834            1351     290.102E-03     272.510E-03
             829            1352     337.434E-03     323.222E-03
             834            1352     337.434E-03     323.222E-03
             835            1352     337.434E-03     323.222E-03
             830            1352     337.434E-03     323.222E-03
             831            1353     133.731E-03     127.902E-03
             832            1353     133.731E-03     127.902E-03
             837            1353     133.731E-03     127.902E-03
             836            1353     133.731E-03     127.902E-03
             837            1354     219.634E-03     209.384E-03
             838            1354     219.634E-03     209.384E-03
             833            1354     219.634E-03     209.384E-03
             832            1354     219.634E-03     209.384E-03
             838            1355     296.018E-03     291.683E-03
             839            1355     296.018E-03     291.683E-03
             834            1355     296.018E-03     291.683E-03
             833            1355     296.018E-03     291.683E-03
             840            1356     355.211E-03     353.033E-03
             835            1356     355.211E-03     353.033E-03
             839            1356     355.211E-03     353.033E-03
             834            1356     355.211E-03     353.033E-03
            1618            2006     355.514E-06     356.304E-06
            1623            2006     355.514E-06     356.304E-06
            1624            2006     355.514E-06     356.304E-06
            1619            2006     355.514E-06     356.304E-06
            1620            2007     309.194E-06     306.703E-06
            1619            2007     309.194E-06     306.703E-06
            1624            2007     309.194E-06     306.703E-06
            1625            2007     309.194E-06     306.703E-06
            1621            2008     323.403E-06     313.472E-06
            1625            2008     323.403E-06     313.472E-06
            1626            2008     323.403E-06     313.472E-06
            1620            2008     323.403E-06     313.472E-06
            1626            2009     340.317E-06     330.435E-06
            1621            2009     340.317E-06     330.435E-06
            1627            2009     340.317E-06     330.435E-06
            1622            2009     340.317E-06     330.435E-06
            1623            2010     278.376E-06     265.088E-06
            1628            2010     278.376E-06     265.088E-06
            1629            2010     278.376E-06     265.088E-06
            1624            2010     278.376E-06     265.088E-06
            1624            2011     277.145E-06     258.109E-06
            1630            2011     277.145E-06     258.109E-06
            1625            2011     277.145E-06     258.109E-06
            1629            2011     277.145E-06     258.109E-06
            1630            2012     309.763E-06     294.481E-06
            1631            2012     309.763E-06     294.481E-06
            1625            2012     309.763E-06     294.481E-06
            1626            2012     309.763E-06     294.481E-06
            1631            2013     336.654E-06     330.811E-06
            1632            2013     336.654E-06     330.811E-06
            1627            2013     336.654E-06     330.811E-06
            1626            2013     336.654E-06     330.811E-06
            1628            2014     168.109E-06     183.638E-06
            1633            2014     168.109E-06     183.638E-06
            1634            2014     168.109E-06     183.638E-06
            1629            2014     168.109E-06     183.638E-06
            1629            2015     203.454E-06     216.928E-06
            1635            2015     203.454E-06     216.928E-06
            1630            2015     203.454E-06     216.928E-06
            1634            2015     203.454E-06     216.928E-06
            1635            2016     274.166E-06     282.384E-06
            1636            2016     274.166E-06     282.384E-06
            1630            2016     274.166E-06     282.384E-06
            1631            2016     274.166E-06     282.384E-06
            1636            2017     323.061E-06     324.742E-06
            1637            2017     323.061E-06     324.742E-06
            1632            2017     323.061E-06     324.742E-06
            1631            2017     323.061E-06     324.742E-06
            1634            2018     121.942E-06     107.240E-06
            1638            2018     121.942E-06     107.240E-06
            1633            2018     121.942E-06     107.240E-06
            1639            2018     121.942E-06     107.240E-06
            1640            2019     179.501E-06     173.225E-06
            1634            2019     179.501E-06     173.225E-06
            1635            2019     179.501E-06     173.225E-06
            1639            2019     179.501E-06     173.225E-06
            1635            2020     265.593E-06     264.713E-06
            1640            2020     265.593E-06     264.713E-06
            1636            2020     265.593E-06     264.713E-06
            1641            2020     265.593E-06     264.713E-06
            1642            2021     323.963E-06     319.155E-06
            1636            2021     323.963E-06     319.155E-06
            1637            2021     323.963E-06     319.155E-06
            1641            2021     323.963E-06     319.155E-06
            1643            2022     96.1412E-06     119.650E-06
            1639            2022     96.1412E-06     119.650E-06
            1644            2022     96.1412E-06     119.650E-06
            1638            2022     96.1412E-06     119.650E-06
            1639            2023     162.097E-06     170.795E-06
            1645            2023     162.097E-06     170.795E-06
            1640            2023     162.097E-06     170.795E-06
            1644            2023     162.097E-06     170.795E-06
            1640            2024     256.476E-06     257.073E-06
            1641            2024     256.476E-06     257.073E-06
            1645            2024     256.476E-06     257.073E-06
            1646            2024     256.476E-06     257.073E-06
            1641            2025     321.553E-06     315.907E-06
            1647            2025     321.553E-06     315.907E-06
            1646            2025     321.553E-06     315.907E-06
            1642            2025     321.553E-06     315.907E-06
            1654            2026     335.553E-03     354.188E-03
            1648            2026     335.553E-03     354.188E-03
            1653            2026     335.553E-03     354.188E-03
            1649            2026     335.553E-03     354.188E-03
            1650            2027     286.284E-03     308.278E-03
            1654            2027     286.284E-03     308.278E-03
            1649            2027     286.284E-03     308.278E-03
            1655            2027     286.284E-03     308.278E-03
            1655            2028     212.214E-03     226.798E-03
            1651            2028     212.214E-03     226.798E-03
            1656            2028     212.214E-03     226.798E-03
            1650            2028     212.214E-03     226.798E-03
            1652            2029     123.909E-03     131.972E-03
            1657            2029     123.909E-03     131.972E-03
            1651            2029     123.909E-03     131.972E-03
            1656            2029     123.909E-03     131.972E-03
            1653            2030     358.472E-03     368.811E-03
            1654            2030     358.472E-03     368.811E-03
            1659            2030     358.472E-03     368.811E-03
            1658            2030     358.472E-03     368.811E-03
            1659            2031     312.596E-03     324.706E-03
            1660            2031     312.596E-03     324.706E-03
            1654            2031     312.596E-03     324.706E-03
            1655            2031     312.596E-03     324.706E-03
            1655            2032     234.758E-03     239.087E-03
            1656            2032     234.758E-03     239.087E-03
            1661            2032     234.758E-03     239.087E-03
            1660            2032     234.758E-03     239.087E-03
            1661            2033     135.404E-03     139.223E-03
            1656            2033     135.404E-03     139.223E-03
            1662            2033     135.404E-03     139.223E-03
            1657            2033     135.404E-03     139.223E-03
            1663            2034     400.401E-03     374.126E-03
            1658            2034     400.401E-03     374.126E-03
            1659            2034     400.401E-03     374.126E-03
            1664            2034     400.401E-03     374.126E-03
            1659            2035     353.337E-03     325.009E-03
            1660            2035     353.337E-03     325.009E-03
            1664            2035     353.337E-03     325.009E-03
            1665            2035     353.337E-03     325.009E-03
            1660            2036     265.463E-03     242.643E-03
            1661            2036     265.463E-03     242.643E-03
            1666            2036     265.463E-03     242.643E-03
            1665            2036     265.463E-03     242.643E-03
            1662            2037     146.116E-03     139.490E-03
            1661            2037     146.116E-03     139.490E-03
            1666            2037     146.116E-03     139.490E-03
            1667            2037     146.116E-03     139.490E-03
            1668            2038     396.823E-03     404.930E-03
            1664            2038     396.823E-03     404.930E-03
            1669            2038     396.823E-03     404.930E-03
            1663            2038     396.823E-03     404.930E-03
            1669            2039     331.041E-03     337.149E-03
            1670            2039     331.041E-03     337.149E-03
            1664            2039     331.041E-03     337.149E-03
            1665            2039     331.041E-03     337.149E-03
            1666            2040     243.601E-03     242.425E-03
            1670            2040     243.601E-03     242.425E-03
            1665            2040     243.601E-03     242.425E-03
            1671            2040     243.601E-03     242.425E-03
            1667            2041     133.153E-03     132.079E-03
            1666            2041     133.153E-03     132.079E-03
            1671            2041     133.153E-03     132.079E-03
            1672            2041     133.153E-03     132.079E-03
            1833            2162     222.765E-03     223.330E-03
            1838            2162     222.765E-03     223.330E-03
            1834            2162     222.765E-03     223.330E-03
            1839            2162     222.765E-03     223.330E-03
            1839            2163     274.100E-03     277.268E-03
            1834            2163     274.100E-03     277.268E-03
            1840            2163     274.100E-03     277.268E-03
            1835            2163     274.100E-03     277.268E-03
            1840            2164     327.480E-03     332.799E-03
            1835            2164     327.480E-03     332.799E-03
            1836            2164     327.480E-03     332.799E-03
            1841            2164     327.480E-03     332.799E-03
            1841            2165     364.340E-03     371.025E-03
            1842            2165     364.340E-03     371.025E-03
            1837            2165     364.340E-03     371.025E-03
            1836            2165     364.340E-03     371.025E-03
            1843            2166     228.540E-03     229.104E-03
            1839            2166     228.540E-03     229.104E-03
            1844            2166     228.540E-03     229.104E-03
            1838            2166     228.540E-03     229.104E-03
            1840            2167     264.284E-03     273.230E-03
            1845            2167     264.284E-03     273.230E-03
            1844            2167     264.284E-03     273.230E-03
            1839            2167     264.284E-03     273.230E-03
            1841            2168     302.095E-03     323.555E-03
            1845            2168     302.095E-03     323.555E-03
            1840            2168     302.095E-03     323.555E-03
            1846            2168     302.095E-03     323.555E-03
            1846            2169     338.885E-03     363.068E-03
            1847            2169     338.885E-03     363.068E-03
            1842            2169     338.885E-03     363.068E-03
            1841            2169     338.885E-03     363.068E-03
            1849            2170     219.314E-03     213.929E-03
            1848            2170     219.314E-03     213.929E-03
            1844            2170     219.314E-03     213.929E-03
            1843            2170     219.314E-03     213.929E-03
            1850            2171     262.997E-03     254.680E-03
            1849            2171     262.997E-03     254.680E-03
            1844            2171     262.997E-03     254.680E-03
            1845            2171     262.997E-03     254.680E-03
            1850            2172     304.358E-03     298.023E-03
            1845            2172     304.358E-03     298.023E-03
            1846            2172     304.358E-03     298.023E-03
            1851            2172     304.358E-03     298.023E-03
            1851            2173     342.242E-03     340.209E-03
            1852            2173     342.242E-03     340.209E-03
            1846            2173     342.242E-03     340.209E-03
            1847            2173     342.242E-03     340.209E-03
            1849            2174     215.510E-03     212.006E-03
            1853            2174     215.510E-03     212.006E-03
            1854            2174     215.510E-03     212.006E-03
            1848            2174     215.510E-03     212.006E-03
            1849            2175     253.694E-03     239.676E-03
            1855            2175     253.694E-03     239.676E-03
            1854            2175     253.694E-03     239.676E-03
            1850            2175     253.694E-03     239.676E-03
            1851            2176     293.986E-03     274.350E-03
            1850            2176     293.986E-03     274.350E-03
            1856            2176     293.986E-03     274.350E-03
            1855            2176     293.986E-03     274.350E-03
            1851            2177     309.308E-03     284.644E-03
            1856            2177     309.308E-03     284.644E-03
            1857            2177     309.308E-03     284.644E-03
            1852            2177     309.308E-03     284.644E-03
            1858            2178     21.3689E-03     23.4271E-03
            1863            2178     21.3689E-03     23.4271E-03
            1859            2178     21.3689E-03     23.4271E-03
            1864            2178     21.3689E-03     23.4271E-03
            1860            2179     36.7393E-03     37.0036E-03
            1864            2179     36.7393E-03     37.0036E-03
            1859            2179     36.7393E-03     37.0036E-03
            1865            2179     36.7393E-03     37.0036E-03
            1865            2180     50.1451E-03     50.2167E-03
            1866            2180     50.1451E-03     50.2167E-03
            1860            2180     50.1451E-03     50.2167E-03
            1861            2180     50.1451E-03     50.2167E-03
            1867            2181     60.3598E-03     60.0252E-03
            1866            2181     60.3598E-03     60.0252E-03
            1862            2181     60.3598E-03     60.0252E-03
            1861            2181     60.3598E-03     60.0252E-03
            1868            2182     21.1339E-03     25.2671E-03
            1869            2182     21.1339E-03     25.2671E-03
            1863            2182     21.1339E-03     25.2671E-03
            1864            2182     21.1339E-03     25.2671E-03
            1870            2183     42.4302E-03     44.2218E-03
            1864            2183     42.4302E-03     44.2218E-03
            1869            2183     42.4302E-03     44.2218E-03
            1865            2183     42.4302E-03     44.2218E-03
            1865            2184     60.2719E-03     61.2838E-03
            1870            2184     60.2719E-03     61.2838E-03
            1866            2184     60.2719E-03     61.2838E-03
            1871            2184     60.2719E-03     61.2838E-03
            1867            2185     74.5644E-03     73.7759E-03
            1871            2185     74.5644E-03     73.7759E-03
            1872            2185     74.5644E-03     73.7759E-03
            1866            2185     74.5644E-03     73.7759E-03
            1869            2186     27.0946E-03     28.7213E-03
            1874            2186     27.0946E-03     28.7213E-03
            1868            2186     27.0946E-03     28.7213E-03
            1873            2186     27.0946E-03     28.7213E-03
            1870            2187     45.6617E-03     47.1241E-03
            1875            2187     45.6617E-03     47.1241E-03
            1874            2187     45.6617E-03     47.1241E-03
            1869            2187     45.6617E-03     47.1241E-03
            1876            2188     62.6784E-03     63.9312E-03
            1870            2188     62.6784E-03     63.9312E-03
            1871            2188     62.6784E-03     63.9312E-03
            1875            2188     62.6784E-03     63.9312E-03
            1877            2189     75.1327E-03     74.8578E-03
            1871            2189     75.1327E-03     74.8578E-03
            1876            2189     75.1327E-03     74.8578E-03
            1872            2189     75.1327E-03     74.8578E-03
            1874            2190     43.2864E-03     40.1112E-03
            1873            2190     43.2864E-03     40.1112E-03
            1879            2190     43.2864E-03     40.1112E-03
            1878            2190     43.2864E-03     40.1112E-03
            1879            2191     53.3868E-03     51.2920E-03
            1875            2191     53.3868E-03     51.2920E-03
            1880            2191     53.3868E-03     51.2920E-03
            1874            2191     53.3868E-03     51.2920E-03
            1881            2192     66.6733E-03     66.2124E-03
            1880            2192     66.6733E-03     66.2124E-03
            1875            2192     66.6733E-03     66.2124E-03
            1876            2192     66.6733E-03     66.2124E-03
            1882            2193     76.1549E-03     75.8216E-03
            1877            2193     76.1549E-03     75.8216E-03
            1876            2193     76.1549E-03     75.8216E-03
            1881            2193     76.1549E-03     75.8216E-03
            1883            2194     54.9350E-03     61.1204E-03
            1879            2194     54.9350E-03     61.1204E-03
            1884            2194     54.9350E-03     61.1204E-03
            1878            2194     54.9350E-03     61.1204E-03
            1879            2195     59.3844E-03     64.7748E-03
            1880            2195     59.3844E-03     64.7748E-03
            1884            2195     59.3844E-03     64.7748E-03
            1885            2195     59.3844E-03     64.7748E-03
            1886            2196     69.4917E-03     72.0459E-03
            1885            2196     69.4917E-03     72.0459E-03
            1880            2196     69.4917E-03     72.0459E-03
            1881            2196     69.4917E-03     72.0459E-03
            1887            2197     76.8717E-03     77.9093E-03
            1882            2197     76.8717E-03     77.9093E-03
            1881            2197     76.8717E-03     77.9093E-03
            1886            2197     76.8717E-03     77.9093E-03
            1884            2198     79.9023E-03     76.1547E-03
            1883            2198     79.9023E-03     76.1547E-03
            1888            2198     79.9023E-03     76.1547E-03
            1889            2198     79.9023E-03     76.1547E-03
            1890            2199     77.6514E-03     73.2340E-03
            1889            2199     77.6514E-03     73.2340E-03
            1884            2199     77.6514E-03     73.2340E-03
            1885            2199     77.6514E-03     73.2340E-03
            1891            2200     79.3828E-03     75.3314E-03
            1885            2200     79.3828E-03     75.3314E-03
            1886            2200     79.3828E-03     75.3314E-03
            1890            2200     79.3828E-03     75.3314E-03
            1887            2201     80.7471E-03     79.5523E-03
            1886            2201     80.7471E-03     79.5523E-03
            1891            2201     80.7471E-03     79.5523E-03
            1892            2201     80.7471E-03     79.5523E-03
            1889            2202     95.0375E-03     94.9592E-03
            1893            2202     95.0375E-03     94.9592E-03
            1888            2202     95.0375E-03     94.9592E-03
            1894            2202     95.0375E-03     94.9592E-03
            1889            2203     84.7699E-03     83.7469E-03
            1894            2203     84.7699E-03     83.7469E-03
            1895            2203     84.7699E-03     83.7469E-03
            1890            2203     84.7699E-03     83.7469E-03
            1890            2204     82.8172E-03     80.0441E-03
            1896            2204     82.8172E-03     80.0441E-03
            1891            2204     82.8172E-03     80.0441E-03
            1895            2204     82.8172E-03     80.0441E-03
            1897            2205     81.7378E-03     79.5921E-03
            1896            2205     81.7378E-03     79.5921E-03
            1892            2205     81.7378E-03     79.5921E-03
            1891            2205     81.7378E-03     79.5921E-03
            1899            2206     82.2175E-03     95.6183E-03
            1894            2206     82.2175E-03     95.6183E-03
            1893            2206     82.2175E-03     95.6183E-03
            1898            2206     82.2175E-03     95.6183E-03
            1900            2207     76.8361E-03     90.9735E-03
            1894            2207     76.8361E-03     90.9735E-03
            1899            2207     76.8361E-03     90.9735E-03
            1895            2207     76.8361E-03     90.9735E-03
            1896            2208     76.9456E-03     83.3576E-03
            1895            2208     76.9456E-03     83.3576E-03
            1901            2208     76.9456E-03     83.3576E-03
            1900            2208     76.9456E-03     83.3576E-03
            1901            2209     79.2730E-03     80.0465E-03
            1896            2209     79.2730E-03     80.0465E-03
            1897            2209     79.2730E-03     80.0465E-03
            1902            2209     79.2730E-03     80.0465E-03
            1904            2210     84.5600E-03     83.4824E-03
            1903            2210     84.5600E-03     83.4824E-03
            1898            2210     84.5600E-03     83.4824E-03
            1899            2210     84.5600E-03     83.4824E-03
            1904            2211     87.1531E-03     87.9154E-03
            1900            2211     87.1531E-03     87.9154E-03
            1899            2211     87.1531E-03     87.9154E-03
            1905            2211     87.1531E-03     87.9154E-03
            1906            2212     83.0002E-03     83.0085E-03
            1900            2212     83.0002E-03     83.0085E-03
            1905            2212     83.0002E-03     83.0085E-03
            1901            2212     83.0002E-03     83.0085E-03
            1902            2213     81.6982E-03     81.1797E-03
            1901            2213     81.6982E-03     81.1797E-03
            1906            2213     81.6982E-03     81.1797E-03
            1907            2213     81.6982E-03     81.1797E-03
            1903            2214     98.5529E-03     95.1234E-03
            1904            2214     98.5529E-03     95.1234E-03
            1908            2214     98.5529E-03     95.1234E-03
            1909            2214     98.5529E-03     95.1234E-03
            1904            2215     96.1862E-03     94.0810E-03
            1909            2215     96.1862E-03     94.0810E-03
            1910            2215     96.1862E-03     94.0810E-03
            1905            2215     96.1862E-03     94.0810E-03
            1910            2216     90.5529E-03     89.0201E-03
            1911            2216     90.5529E-03     89.0201E-03
            1906            2216     90.5529E-03     89.0201E-03
            1905            2216     90.5529E-03     89.0201E-03
            1912            2217     84.8633E-03     83.5065E-03
            1906            2217     84.8633E-03     83.5065E-03
            1907            2217     84.8633E-03     83.5065E-03
            1911            2217     84.8633E-03     83.5065E-03
            1914            2218     107.127E-03     118.031E-03
            1913            2218     107.127E-03     118.031E-03
            1909            2218     107.127E-03     118.031E-03
            1908            2218     107.127E-03     118.031E-03
            1915            2219     98.9162E-03     110.081E-03
            1910            2219     98.9162E-03     110.081E-03
            1914            2219     98.9162E-03     110.081E-03
            1909            2219     98.9162E-03     110.081E-03
            1916            2220     93.4093E-03     99.2340E-03
            1910            2220     93.4093E-03     99.2340E-03
            1915            2220     93.4093E-03     99.2340E-03
            1911            2220     93.4093E-03     99.2340E-03
            1911            2221     85.9489E-03     88.3443E-03
            1917            2221     85.9489E-03     88.3443E-03
            1916            2221     85.9489E-03     88.3443E-03
            1912            2221     85.9489E-03     88.3443E-03
            1914            2222     138.755E-03     132.612E-03
            1919            2222     138.755E-03     132.612E-03
            1918            2222     138.755E-03     132.612E-03
            1913            2222     138.755E-03     132.612E-03
            1920            2223     125.394E-03     117.417E-03
            1915            2223     125.394E-03     117.417E-03
            1914            2223     125.394E-03     117.417E-03
            1919            2223     125.394E-03     117.417E-03
            1920            2224     109.615E-03     102.423E-03
            1916            2224     109.615E-03     102.423E-03
            1915            2224     109.615E-03     102.423E-03
            1921            2224     109.615E-03     102.423E-03
            1916            2225     92.2416E-03     90.6683E-03
            1921            2225     92.2416E-03     90.6683E-03
            1922            2225     92.2416E-03     90.6683E-03
            1917            2225     92.2416E-03     90.6683E-03
            1919            2226     155.102E-03     154.334E-03
            1923            2226     155.102E-03     154.334E-03
            1924            2226     155.102E-03     154.334E-03
            1918            2226     155.102E-03     154.334E-03
            1919            2227     132.627E-03     130.557E-03
            1920            2227     132.627E-03     130.557E-03
            1925            2227     132.627E-03     130.557E-03
            1924            2227     132.627E-03     130.557E-03
            1920            2228     112.924E-03     108.181E-03
            1921            2228     112.924E-03     108.181E-03
            1926            2228     112.924E-03     108.181E-03
            1925            2228     112.924E-03     108.181E-03
            1921            2229     92.9912E-03     90.0444E-03
            1922            2229     92.9912E-03     90.0444E-03
            1927            2229     92.9912E-03     90.0444E-03
            1926            2229     92.9912E-03     90.0444E-03
            1924            2230     137.988E-03     162.151E-03
            1928            2230     137.988E-03     162.151E-03
            1923            2230     137.988E-03     162.151E-03
            1929            2230     137.988E-03     162.151E-03
            1929            2231     118.870E-03     144.491E-03
            1924            2231     118.870E-03     144.491E-03
            1930            2231     118.870E-03     144.491E-03
            1925            2231     118.870E-03     144.491E-03
            1931            2232     101.819E-03     114.538E-03
            1925            2232     101.819E-03     114.538E-03
            1926            2232     101.819E-03     114.538E-03
            1930            2232     101.819E-03     114.538E-03
            1932            2233     88.3994E-03     91.2043E-03
            1927            2233     88.3994E-03     91.2043E-03
            1931            2233     88.3994E-03     91.2043E-03
            1926            2233     88.3994E-03     91.2043E-03
            1929            2234     147.695E-03     143.995E-03
            1934            2234     147.695E-03     143.995E-03
            1933            2234     147.695E-03     143.995E-03
            1928            2234     147.695E-03     143.995E-03
            1930            2235     136.649E-03     137.096E-03
            1935            2235     136.649E-03     137.096E-03
            1929            2235     136.649E-03     137.096E-03
            1934            2235     136.649E-03     137.096E-03
            1936            2236     112.614E-03     112.455E-03
            1935            2236     112.614E-03     112.455E-03
            1930            2236     112.614E-03     112.455E-03
            1931            2236     112.614E-03     112.455E-03
            1937            2237     93.2412E-03     92.1936E-03
            1936            2237     93.2412E-03     92.1936E-03
            1932            2237     93.2412E-03     92.1936E-03
            1931            2237     93.2412E-03     92.1936E-03
            1939            2238     157.176E-03     158.014E-03
            1938            2238     157.176E-03     158.014E-03
            1933            2238     157.176E-03     158.014E-03
            1934            2238     157.176E-03     158.014E-03
            1935            2239     145.302E-03     145.950E-03
            1934            2239     145.302E-03     145.950E-03
            1940            2239     145.302E-03     145.950E-03
            1939            2239     145.302E-03     145.950E-03
            1936            2240     123.025E-03     121.917E-03
            1940            2240     123.025E-03     121.917E-03
            1941            2240     123.025E-03     121.917E-03
            1935            2240     123.025E-03     121.917E-03
            1942            2241     98.3766E-03     97.0252E-03
            1937            2241     98.3766E-03     97.0252E-03
            1936            2241     98.3766E-03     97.0252E-03
            1941            2241     98.3766E-03     97.0252E-03
            1938            2242     169.186E-03     171.333E-03
            1943            2242     169.186E-03     171.333E-03
            1944            2242     169.186E-03     171.333E-03
            1939            2242     169.186E-03     171.333E-03
            1945            2243     150.441E-03     153.148E-03
            1940            2243     150.441E-03     153.148E-03
            1944            2243     150.441E-03     153.148E-03
            1939            2243     150.441E-03     153.148E-03
            1940            2244     128.310E-03     128.350E-03
            1941            2244     128.310E-03     128.350E-03
            1946            2244     128.310E-03     128.350E-03
            1945            2244     128.310E-03     128.350E-03
            1941            2245     102.379E-03     101.612E-03
            1942            2245     102.379E-03     101.612E-03
            1946            2245     102.379E-03     101.612E-03
            1947            2245     102.379E-03     101.612E-03
            1949            2246     181.919E-03     194.285E-03
            1944            2246     181.919E-03     194.285E-03
            1948            2246     181.919E-03     194.285E-03
            1943            2246     181.919E-03     194.285E-03
            1950            2247     158.747E-03     171.070E-03
            1949            2247     158.747E-03     171.070E-03
            1945            2247     158.747E-03     171.070E-03
            1944            2247     158.747E-03     171.070E-03
            1945            2248     133.989E-03     139.352E-03
            1951            2248     133.989E-03     139.352E-03
            1950            2248     133.989E-03     139.352E-03
            1946            2248     133.989E-03     139.352E-03
            1947            2249     103.929E-03     107.150E-03
            1946            2249     103.929E-03     107.150E-03
            1952            2249     103.929E-03     107.150E-03
            1951            2249     103.929E-03     107.150E-03
            1948            2250     216.690E-03     210.983E-03
            1949            2250     216.690E-03     210.983E-03
            1954            2250     216.690E-03     210.983E-03
            1953            2250     216.690E-03     210.983E-03
            1950            2251     190.522E-03     182.054E-03
            1949            2251     190.522E-03     182.054E-03
            1955            2251     190.522E-03     182.054E-03
            1954            2251     190.522E-03     182.054E-03
            1950            2252     154.903E-03     144.662E-03
            1956            2252     154.903E-03     144.662E-03
            1951            2252     154.903E-03     144.662E-03
            1955            2252     154.903E-03     144.662E-03
            1956            2253     112.459E-03     109.883E-03
            1951            2253     112.459E-03     109.883E-03
            1957            2253     112.459E-03     109.883E-03
            1952            2253     112.459E-03     109.883E-03
            1958            2254     235.281E-03     232.734E-03
            1954            2254     235.281E-03     232.734E-03
            1953            2254     235.281E-03     232.734E-03
            1959            2254     235.281E-03     232.734E-03
            1960            2255     198.879E-03     195.639E-03
            1955            2255     198.879E-03     195.639E-03
            1959            2255     198.879E-03     195.639E-03
            1954            2255     198.879E-03     195.639E-03
            1961            2256     157.147E-03     150.312E-03
            1955            2256     157.147E-03     150.312E-03
            1956            2256     157.147E-03     150.312E-03
            1960            2256     157.147E-03     150.312E-03
            1961            2257     112.053E-03     107.740E-03
            1957            2257     112.053E-03     107.740E-03
            1956            2257     112.053E-03     107.740E-03
            1962            2257     112.053E-03     107.740E-03
            1959            2258     208.688E-03     245.678E-03
            1963            2258     208.688E-03     245.678E-03
            1964            2258     208.688E-03     245.678E-03
            1958            2258     208.688E-03     245.678E-03
            1959            2259     174.613E-03     214.725E-03
            1960            2259     174.613E-03     214.725E-03
            1965            2259     174.613E-03     214.725E-03
            1964            2259     174.613E-03     214.725E-03
            1960            2260     137.671E-03     159.059E-03
            1965            2260     137.671E-03     159.059E-03
            1961            2260     137.671E-03     159.059E-03
            1966            2260     137.671E-03     159.059E-03
            1962            2261     103.232E-03     109.168E-03
            1961            2261     103.232E-03     109.168E-03
            1967            2261     103.232E-03     109.168E-03
            1966            2261     103.232E-03     109.168E-03
            1963            2262     223.813E-03     218.779E-03
            1968            2262     223.813E-03     218.779E-03
            1969            2262     223.813E-03     218.779E-03
            1964            2262     223.813E-03     218.779E-03
            1969            2263     199.699E-03     199.419E-03
            1970            2263     199.699E-03     199.419E-03
            1964            2263     199.699E-03     199.419E-03
            1965            2263     199.699E-03     199.419E-03
            1966            2264     154.552E-03     153.009E-03
            1971            2264     154.552E-03     153.009E-03
            1970            2264     154.552E-03     153.009E-03
            1965            2264     154.552E-03     153.009E-03
            1967            2265     111.212E-03     109.445E-03
            1972            2265     111.212E-03     109.445E-03
            1966            2265     111.212E-03     109.445E-03
            1971            2265     111.212E-03     109.445E-03
            1973            2266     231.857E-03     231.721E-03
            1969            2266     231.857E-03     231.721E-03
            1968            2266     231.857E-03     231.721E-03
            1974            2266     231.857E-03     231.721E-03
            1974            2267     208.939E-03     207.767E-03
            1969            2267     208.939E-03     207.767E-03
            1970            2267     208.939E-03     207.767E-03
            1975            2267     208.939E-03     207.767E-03
            1976            2268     167.787E-03     164.064E-03
            1970            2268     167.787E-03     164.064E-03
            1971            2268     167.787E-03     164.064E-03
            1975            2268     167.787E-03     164.064E-03
            1977            2269     118.704E-03     116.101E-03
            1971            2269     118.704E-03     116.101E-03
            1976            2269     118.704E-03     116.101E-03
            1972            2269     118.704E-03     116.101E-03
            1973            2270     239.582E-03     244.741E-03
            1978            2270     239.582E-03     244.741E-03
            1979            2270     239.582E-03     244.741E-03
            1974            2270     239.582E-03     244.741E-03
            1974            2271     208.902E-03     214.724E-03
            1980            2271     208.902E-03     214.724E-03
            1979            2271     208.902E-03     214.724E-03
            1975            2271     208.902E-03     214.724E-03
            1980            2272     170.421E-03     171.406E-03
            1976            2272     170.421E-03     171.406E-03
            1975            2272     170.421E-03     171.406E-03
            1981            2272     170.421E-03     171.406E-03
            1981            2273     122.671E-03     122.173E-03
            1976            2273     122.671E-03     122.173E-03
            1982            2273     122.671E-03     122.173E-03
            1977            2273     122.671E-03     122.173E-03
            1978            2274     252.481E-03     267.979E-03
            1983            2274     252.481E-03     267.979E-03
            1979            2274     252.481E-03     267.979E-03
            1984            2274     252.481E-03     267.979E-03
            1984            2275     217.448E-03     233.097E-03
            1979            2275     217.448E-03     233.097E-03
            1985            2275     217.448E-03     233.097E-03
            1980            2275     217.448E-03     233.097E-03
            1985            2276     176.526E-03     183.091E-03
            1986            2276     176.526E-03     183.091E-03
            1980            2276     176.526E-03     183.091E-03
            1981            2276     176.526E-03     183.091E-03
            1981            2277     124.235E-03     128.579E-03
            1982            2277     124.235E-03     128.579E-03
            1987            2277     124.235E-03     128.579E-03
            1986            2277     124.235E-03     128.579E-03
            1984            2278     292.158E-03     285.403E-03
            1989            2278     292.158E-03     285.403E-03
            1988            2278     292.158E-03     285.403E-03
            1983            2278     292.158E-03     285.403E-03
            1989            2279     255.278E-03     244.855E-03
            1990            2279     255.278E-03     244.855E-03
            1985            2279     255.278E-03     244.855E-03
            1984            2279     255.278E-03     244.855E-03
            1991            2280     201.677E-03     188.481E-03
            1985            2280     201.677E-03     188.481E-03
            1986            2280     201.677E-03     188.481E-03
            1990            2280     201.677E-03     188.481E-03
            1987            2281     134.421E-03     131.091E-03
            1991            2281     134.421E-03     131.091E-03
            1992            2281     134.421E-03     131.091E-03
            1986            2281     134.421E-03     131.091E-03
            1988            2282     312.597E-03     308.741E-03
            1989            2282     312.597E-03     308.741E-03
            1994            2282     312.597E-03     308.741E-03
            1993            2282     312.597E-03     308.741E-03
            1990            2283     263.674E-03     259.582E-03
            1994            2283     263.674E-03     259.582E-03
            1989            2283     263.674E-03     259.582E-03
            1995            2283     263.674E-03     259.582E-03
            1991            2284     202.177E-03     193.592E-03
            1995            2284     202.177E-03     193.592E-03
            1996            2284     202.177E-03     193.592E-03
            1990            2284     202.177E-03     193.592E-03
            1992            2285     132.532E-03     127.145E-03
            1996            2285     132.532E-03     127.145E-03
            1991            2285     132.532E-03     127.145E-03
            1997            2285     132.532E-03     127.145E-03
            1998            2286     278.032E-03     326.870E-03
            1994            2286     278.032E-03     326.870E-03
            1999            2286     278.032E-03     326.870E-03
            1993            2286     278.032E-03     326.870E-03
            1995            2287     229.484E-03     283.456E-03
            1999            2287     229.484E-03     283.456E-03
            2000            2287     229.484E-03     283.456E-03
            1994            2287     229.484E-03     283.456E-03
            1996            2288     175.390E-03     205.387E-03
            2000            2288     175.390E-03     205.387E-03
            1995            2288     175.390E-03     205.387E-03
            2001            2288     175.390E-03     205.387E-03
            2002            2289     120.237E-03     129.870E-03
            2001            2289     120.237E-03     129.870E-03
            1996            2289     120.237E-03     129.870E-03
            1997            2289     120.237E-03     129.870E-03
            2003            2290     299.349E-03     296.028E-03
            2004            2290     299.349E-03     296.028E-03
            1998            2290     299.349E-03     296.028E-03
            1999            2290     299.349E-03     296.028E-03
            1999            2291     264.725E-03     263.481E-03
            2004            2291     264.725E-03     263.481E-03
            2005            2291     264.725E-03     263.481E-03
            2000            2291     264.725E-03     263.481E-03
            2000            2292     201.158E-03     196.869E-03
            2001            2292     201.158E-03     196.869E-03
            2006            2292     201.158E-03     196.869E-03
            2005            2292     201.158E-03     196.869E-03
            2007            2293     133.137E-03     131.051E-03
            2006            2293     133.137E-03     131.051E-03
            2002            2293     133.137E-03     131.051E-03
            2001            2293     133.137E-03     131.051E-03
            2008            2294     312.595E-03     300.186E-03
            2009            2294     312.595E-03     300.186E-03
            2003            2294     312.595E-03     300.186E-03
            2004            2294     312.595E-03     300.186E-03
            2005            2295     277.438E-03     264.841E-03
            2010            2295     277.438E-03     264.841E-03
            2009            2295     277.438E-03     264.841E-03
            2004            2295     277.438E-03     264.841E-03
            2006            2296     216.998E-03     205.512E-03
            2011            2296     216.998E-03     205.512E-03
            2005            2296     216.998E-03     205.512E-03
            2010            2296     216.998E-03     205.512E-03
            2006            2297     142.695E-03     137.266E-03
            2011            2297     142.695E-03     137.266E-03
            2012            2297     142.695E-03     137.266E-03
            2007            2297     142.695E-03     137.266E-03
            2014            2298     300.305E-03     332.650E-03
            2013            2298     300.305E-03     332.650E-03
            2008            2298     300.305E-03     332.650E-03
            2009            2298     300.305E-03     332.650E-03
            2015            2299     258.122E-03     291.835E-03
            2014            2299     258.122E-03     291.835E-03
            2010            2299     258.122E-03     291.835E-03
            2009            2299     258.122E-03     291.835E-03
            2015            2300     208.173E-03     226.604E-03
            2011            2300     208.173E-03     226.604E-03
            2010            2300     208.173E-03     226.604E-03
            2016            2300     208.173E-03     226.604E-03
            2011            2301     140.055E-03     149.582E-03
            2016            2301     140.055E-03     149.582E-03
            2012            2301     140.055E-03     149.582E-03
            2017            2301     140.055E-03     149.582E-03
            2013            2302     354.510E-03     339.386E-03
            2018            2302     354.510E-03     339.386E-03
            2014            2302     354.510E-03     339.386E-03
            2019            2302     354.510E-03     339.386E-03
            2019            2303     309.413E-03     290.627E-03
            2015            2303     309.413E-03     290.627E-03
            2014            2303     309.413E-03     290.627E-03
            2020            2303     309.413E-03     290.627E-03
            2016            2304     240.856E-03     223.057E-03
            2015            2304     240.856E-03     223.057E-03
            2021            2304     240.856E-03     223.057E-03
            2020            2304     240.856E-03     223.057E-03
            2021            2305     153.263E-03     149.219E-03
            2016            2305     153.263E-03     149.219E-03
            2017            2305     153.263E-03     149.219E-03
            2022            2305     153.263E-03     149.219E-03
            2018            2306     373.047E-03     370.138E-03
            2019            2306     373.047E-03     370.138E-03
            2024            2306     373.047E-03     370.138E-03
            2023            2306     373.047E-03     370.138E-03
            2024            2307     315.235E-03     310.691E-03
            2020            2307     315.235E-03     310.691E-03
            2025            2307     315.235E-03     310.691E-03
            2019            2307     315.235E-03     310.691E-03
            2020            2308     239.510E-03     229.295E-03
            2026            2308     239.510E-03     229.295E-03
            2021            2308     239.510E-03     229.295E-03
            2025            2308     239.510E-03     229.295E-03
            2021            2309     150.408E-03     144.522E-03
            2026            2309     150.408E-03     144.522E-03
            2027            2309     150.408E-03     144.522E-03
            2022            2309     150.408E-03     144.522E-03
            2151            2384     356.608E-03     363.207E-03
            2146            2384     356.608E-03     363.207E-03
            2150            2384     356.608E-03     363.207E-03
            2145            2384     356.608E-03     363.207E-03
            2146            2385     320.750E-03     325.882E-03
            2151            2385     320.750E-03     325.882E-03
            2147            2385     320.750E-03     325.882E-03
            2152            2385     320.750E-03     325.882E-03
            2147            2386     268.237E-03     271.063E-03
            2148            2386     268.237E-03     271.063E-03
            2153            2386     268.237E-03     271.063E-03
            2152            2386     268.237E-03     271.063E-03
            2153            2387     219.072E-03     219.233E-03
            2154            2387     219.072E-03     219.233E-03
            2149            2387     219.072E-03     219.233E-03
            2148            2387     219.072E-03     219.233E-03
            2150            2388     331.302E-03     355.124E-03
            2156            2388     331.302E-03     355.124E-03
            2155            2388     331.302E-03     355.124E-03
            2151            2388     331.302E-03     355.124E-03
            2157            2389     297.046E-03     317.254E-03
            2151            2389     297.046E-03     317.254E-03
            2152            2389     297.046E-03     317.254E-03
            2156            2389     297.046E-03     317.254E-03
            2158            2390     260.669E-03     268.294E-03
            2153            2390     260.669E-03     268.294E-03
            2152            2390     260.669E-03     268.294E-03
            2157            2390     260.669E-03     268.294E-03
            2159            2391     226.417E-03     226.105E-03
            2154            2391     226.417E-03     226.105E-03
            2158            2391     226.417E-03     226.105E-03
            2153            2391     226.417E-03     226.105E-03
            2161            2392     334.347E-03     332.813E-03
            2155            2392     334.347E-03     332.813E-03
            2156            2392     334.347E-03     332.813E-03
            2160            2392     334.347E-03     332.813E-03
            2162            2393     298.805E-03     292.365E-03
            2157            2393     298.805E-03     292.365E-03
            2161            2393     298.805E-03     292.365E-03
            2156            2393     298.805E-03     292.365E-03
            2163            2394     258.747E-03     250.083E-03
            2162            2394     258.747E-03     250.083E-03
            2158            2394     258.747E-03     250.083E-03
            2157            2394     258.747E-03     250.083E-03
            2159            2395     216.784E-03     211.020E-03
            2164            2395     216.784E-03     211.020E-03
            2163            2395     216.784E-03     211.020E-03
            2158            2395     216.784E-03     211.020E-03
            2160            2396     303.938E-03     279.716E-03
            2161            2396     303.938E-03     279.716E-03
            2166            2396     303.938E-03     279.716E-03
            2165            2396     303.938E-03     279.716E-03
            2162            2397     289.308E-03     271.138E-03
            2161            2397     289.308E-03     271.138E-03
            2166            2397     289.308E-03     271.138E-03
            2167            2397     289.308E-03     271.138E-03
            2162            2398     249.959E-03     237.535E-03
            2163            2398     249.959E-03     237.535E-03
            2167            2398     249.959E-03     237.535E-03
            2168            2398     249.959E-03     237.535E-03
            2164            2399     213.475E-03     210.900E-03
            2168            2399     213.475E-03     210.900E-03
            2169            2399     213.475E-03     210.900E-03
            2163            2399     213.475E-03     210.900E-03
            2171            2400     204.148E-03     199.278E-03
            2170            2400     204.148E-03     199.278E-03
            2176            2400     204.148E-03     199.278E-03
            2175            2400     204.148E-03     199.278E-03
            2172            2401     223.005E-03     216.739E-03
            2171            2401     223.005E-03     216.739E-03
            2176            2401     223.005E-03     216.739E-03
            2177            2401     223.005E-03     216.739E-03
            2172            2402     240.769E-03     236.562E-03
            2178            2402     240.769E-03     236.562E-03
            2173            2402     240.769E-03     236.562E-03
            2177            2402     240.769E-03     236.562E-03
            2179            2403     261.940E-03     262.012E-03
            2174            2403     261.940E-03     262.012E-03
            2173            2403     261.940E-03     262.012E-03
            2178            2403     261.940E-03     262.012E-03
            2180            2404     202.118E-03     198.594E-03
            2175            2404     202.118E-03     198.594E-03
            2181            2404     202.118E-03     198.594E-03
            2176            2404     202.118E-03     198.594E-03
            2182            2405     216.898E-03     204.562E-03
            2181            2405     216.898E-03     204.562E-03
            2176            2405     216.898E-03     204.562E-03
            2177            2405     216.898E-03     204.562E-03
            2178            2406     235.186E-03     216.202E-03
            2183            2406     235.186E-03     216.202E-03
            2182            2406     235.186E-03     216.202E-03
            2177            2406     235.186E-03     216.202E-03
            2179            2407     235.147E-03     210.308E-03
            2183            2407     235.147E-03     210.308E-03
            2178            2407     235.147E-03     210.308E-03
            2184            2407     235.147E-03     210.308E-03
            2181            2408     193.662E-03     198.176E-03
            2185            2408     193.662E-03     198.176E-03
            2186            2408     193.662E-03     198.176E-03
            2180            2408     193.662E-03     198.176E-03
            2187            2409     191.964E-03     209.093E-03
            2182            2409     191.964E-03     209.093E-03
            2181            2409     191.964E-03     209.093E-03
            2186            2409     191.964E-03     209.093E-03
            2188            2410     189.771E-03     228.456E-03
            2182            2410     189.771E-03     228.456E-03
            2187            2410     189.771E-03     228.456E-03
            2183            2410     189.771E-03     228.456E-03
            2189            2411     200.343E-03     239.742E-03
            2183            2411     200.343E-03     239.742E-03
            2184            2411     200.343E-03     239.742E-03
            2188            2411     200.343E-03     239.742E-03
            2190            2412     202.809E-03     197.471E-03
            2185            2412     202.809E-03     197.471E-03
            2191            2412     202.809E-03     197.471E-03
            2186            2412     202.809E-03     197.471E-03
            2187            2413     203.881E-03     197.095E-03
            2191            2413     203.881E-03     197.095E-03
            2186            2413     203.881E-03     197.095E-03
            2192            2413     203.881E-03     197.095E-03
            2193            2414     206.179E-03     203.836E-03
            2188            2414     206.179E-03     203.836E-03
            2192            2414     206.179E-03     203.836E-03
            2187            2414     206.179E-03     203.836E-03
            2188            2415     229.295E-03     229.518E-03
            2189            2415     229.295E-03     229.518E-03
            2193            2415     229.295E-03     229.518E-03
            2194            2415     229.295E-03     229.518E-03
            2190            2416     200.827E-03     198.001E-03
            2195            2416     200.827E-03     198.001E-03
            2196            2416     200.827E-03     198.001E-03
            2191            2416     200.827E-03     198.001E-03
            2196            2417     196.552E-03     186.686E-03
            2192            2417     196.552E-03     186.686E-03
            2197            2417     196.552E-03     186.686E-03
            2191            2417     196.552E-03     186.686E-03
            2197            2418     190.507E-03     179.170E-03
            2192            2418     190.507E-03     179.170E-03
            2198            2418     190.507E-03     179.170E-03
            2193            2418     190.507E-03     179.170E-03
            2199            2419     193.787E-03     183.841E-03
            2193            2419     193.787E-03     183.841E-03
            2194            2419     193.787E-03     183.841E-03
            2198            2419     193.787E-03     183.841E-03
            2195            2420     192.015E-03     194.407E-03
            2201            2420     192.015E-03     194.407E-03
            2200            2420     192.015E-03     194.407E-03
            2196            2420     192.015E-03     194.407E-03
            2197            2421     173.733E-03     179.655E-03
            2202            2421     173.733E-03     179.655E-03
            2196            2421     173.733E-03     179.655E-03
            2201            2421     173.733E-03     179.655E-03
            2202            2422     147.406E-03     160.033E-03
            2203            2422     147.406E-03     160.033E-03
            2197            2422     147.406E-03     160.033E-03
            2198            2422     147.406E-03     160.033E-03
            2203            2423     133.285E-03     148.194E-03
            2198            2423     133.285E-03     148.194E-03
            2204            2423     133.285E-03     148.194E-03
            2199            2423     133.285E-03     148.194E-03
            2200            2424     190.531E-03     189.821E-03
            2205            2424     190.531E-03     189.821E-03
            2206            2424     190.531E-03     189.821E-03
            2201            2424     190.531E-03     189.821E-03
            2207            2425     167.363E-03     166.566E-03
            2201            2425     167.363E-03     166.566E-03
            2206            2425     167.363E-03     166.566E-03
            2202            2425     167.363E-03     166.566E-03
            2203            2426     133.630E-03     128.832E-03
            2208            2426     133.630E-03     128.832E-03
            2202            2426     133.630E-03     128.832E-03
            2207            2426     133.630E-03     128.832E-03
            2209            2427     105.394E-03     97.6012E-03
            2204            2427     105.394E-03     97.6012E-03
            2208            2427     105.394E-03     97.6012E-03
            2203            2427     105.394E-03     97.6012E-03
            2205            2428     188.496E-03     187.730E-03
            2211            2428     188.496E-03     187.730E-03
            2206            2428     188.496E-03     187.730E-03
            2210            2428     188.496E-03     187.730E-03
            2211            2429     158.534E-03     161.452E-03
            2206            2429     158.534E-03     161.452E-03
            2212            2429     158.534E-03     161.452E-03
            2207            2429     158.534E-03     161.452E-03
            2213            2430     116.460E-03     119.788E-03
            2212            2430     116.460E-03     119.788E-03
            2207            2430     116.460E-03     119.788E-03
            2208            2430     116.460E-03     119.788E-03
            2208            2431     67.4892E-03     70.8119E-03
            2209            2431     67.4892E-03     70.8119E-03
            2214            2431     67.4892E-03     70.8119E-03
            2213            2431     67.4892E-03     70.8119E-03
            2216            2432     187.238E-03     185.223E-03
            2210            2432     187.238E-03     185.223E-03
            2211            2432     187.238E-03     185.223E-03
            2215            2432     187.238E-03     185.223E-03
            2212            2433     153.025E-03     155.299E-03
            2211            2433     153.025E-03     155.299E-03
            2216            2433     153.025E-03     155.299E-03
            2217            2433     153.025E-03     155.299E-03
            2218            2434     109.403E-03     113.608E-03
            2217            2434     109.403E-03     113.608E-03
            2212            2434     109.403E-03     113.608E-03
            2213            2434     109.403E-03     113.608E-03
            2213            2435     55.1625E-03     65.0668E-03
            2218            2435     55.1625E-03     65.0668E-03
            2219            2435     55.1625E-03     65.0668E-03
            2214            2435     55.1625E-03     65.0668E-03
            2220            2436     151.947E-03     151.124E-03
            2221            2436     151.947E-03     151.124E-03
            2216            2436     151.947E-03     151.124E-03
            2215            2436     151.947E-03     151.124E-03
            2217            2437     127.657E-03     127.792E-03
            2221            2437     127.657E-03     127.792E-03
            2216            2437     127.657E-03     127.792E-03
            2222            2437     127.657E-03     127.792E-03
            2222            2438     95.0086E-03     95.6311E-03
            2223            2438     95.0086E-03     95.6311E-03
            2218            2438     95.0086E-03     95.6311E-03
            2217            2438     95.0086E-03     95.6311E-03
            2219            2439     56.8677E-03     61.8810E-03
            2224            2439     56.8677E-03     61.8810E-03
            2223            2439     56.8677E-03     61.8810E-03
            2218            2439     56.8677E-03     61.8810E-03
            2727            2828     103.381E-03     105.023E-03
            2722            2828     103.381E-03     105.023E-03
            2721            2828     103.381E-03     105.023E-03
            2726            2828     103.381E-03     105.023E-03
            2728            2829     193.795E-03     201.041E-03
            2727            2829     193.795E-03     201.041E-03
            2723            2829     193.795E-03     201.041E-03
            2722            2829     193.795E-03     201.041E-03
            2728            2830     270.504E-03     287.123E-03
            2723            2830     270.504E-03     287.123E-03
            2729            2830     270.504E-03     287.123E-03
            2724            2830     270.504E-03     287.123E-03
            2724            2831     320.722E-03     338.456E-03
            2725            2831     320.722E-03     338.456E-03
            2730            2831     320.722E-03     338.456E-03
            2729            2831     320.722E-03     338.456E-03
            2726            2832     115.354E-03     120.167E-03
            2727            2832     115.354E-03     120.167E-03
            2732            2832     115.354E-03     120.167E-03
            2731            2832     115.354E-03     120.167E-03
            2732            2833     218.824E-03     221.604E-03
            2728            2833     218.824E-03     221.604E-03
            2733            2833     218.824E-03     221.604E-03
            2727            2833     218.824E-03     221.604E-03
            2734            2834     301.018E-03     311.565E-03
            2733            2834     301.018E-03     311.565E-03
            2728            2834     301.018E-03     311.565E-03
            2729            2834     301.018E-03     311.565E-03
            2729            2835     346.764E-03     360.661E-03
            2734            2835     346.764E-03     360.661E-03
            2730            2835     346.764E-03     360.661E-03
            2735            2835     346.764E-03     360.661E-03
            2731            2836     138.593E-03     132.410E-03
            2737            2836     138.593E-03     132.410E-03
            2732            2836     138.593E-03     132.410E-03
            2736            2836     138.593E-03     132.410E-03
            2732            2837     260.171E-03     237.132E-03
            2738            2837     260.171E-03     237.132E-03
            2737            2837     260.171E-03     237.132E-03
            2733            2837     260.171E-03     237.132E-03
            2734            2838     351.831E-03     323.457E-03
            2738            2838     351.831E-03     323.457E-03
            2739            2838     351.831E-03     323.457E-03
            2733            2838     351.831E-03     323.457E-03
            2734            2839     404.609E-03     379.655E-03
            2739            2839     404.609E-03     379.655E-03
            2740            2839     404.609E-03     379.655E-03
            2735            2839     404.609E-03     379.655E-03
            2737            2840     137.917E-03     138.441E-03
            2741            2840     137.917E-03     138.441E-03
            2736            2840     137.917E-03     138.441E-03
            2742            2840     137.917E-03     138.441E-03
            2743            2841     247.978E-03     249.275E-03
            2737            2841     247.978E-03     249.275E-03
            2738            2841     247.978E-03     249.275E-03
            2742            2841     247.978E-03     249.275E-03
            2743            2842     339.254E-03     347.293E-03
            2744            2842     339.254E-03     347.293E-03
            2738            2842     339.254E-03     347.293E-03
            2739            2842     339.254E-03     347.293E-03
            2744            2843     416.529E-03     421.947E-03
            2739            2843     416.529E-03     421.947E-03
            2740            2843     416.529E-03     421.947E-03
            2745            2843     416.529E-03     421.947E-03
            2764            2854     256.819E-03     257.293E-03
            2765            2854     256.819E-03     257.293E-03
            2769            2854     256.819E-03     257.293E-03
            2770            2854     256.819E-03     257.293E-03
            2771            2855     238.396E-03     234.084E-03
            2765            2855     238.396E-03     234.084E-03
            2770            2855     238.396E-03     234.084E-03
            2766            2855     238.396E-03     234.084E-03
            2772            2856     221.751E-03     215.187E-03
            2766            2856     221.751E-03     215.187E-03
            2767            2856     221.751E-03     215.187E-03
            2771            2856     221.751E-03     215.187E-03
            2772            2857     203.616E-03     198.450E-03
            2767            2857     203.616E-03     198.450E-03
            2768            2857     203.616E-03     198.450E-03
            2773            2857     203.616E-03     198.450E-03
            2769            2858     232.014E-03     207.649E-03
            2775            2858     232.014E-03     207.649E-03
            2770            2858     232.014E-03     207.649E-03
            2774            2858     232.014E-03     207.649E-03
            2776            2859     233.400E-03     215.798E-03
            2775            2859     233.400E-03     215.798E-03
            2771            2859     233.400E-03     215.798E-03
            2770            2859     233.400E-03     215.798E-03
            2771            2860     215.959E-03     205.011E-03
            2776            2860     215.959E-03     205.011E-03
            2772            2860     215.959E-03     205.011E-03
            2777            2860     215.959E-03     205.011E-03
            2773            2861     201.856E-03     199.085E-03
            2772            2861     201.856E-03     199.085E-03
            2778            2861     201.856E-03     199.085E-03
            2777            2861     201.856E-03     199.085E-03
            2774            2862     198.474E-03     236.530E-03
            2780            2862     198.474E-03     236.530E-03
            2775            2862     198.474E-03     236.530E-03
            2779            2862     198.474E-03     236.530E-03
            2775            2863     189.930E-03     226.665E-03
            2781            2863     189.930E-03     226.665E-03
            2780            2863     189.930E-03     226.665E-03
            2776            2863     189.930E-03     226.665E-03
            2781            2864     193.131E-03     208.516E-03
            2777            2864     193.131E-03     208.516E-03
            2782            2864     193.131E-03     208.516E-03
            2776            2864     193.131E-03     208.516E-03
            2782            2865     194.635E-03     198.181E-03
            2777            2865     194.635E-03     198.181E-03
            2783            2865     194.635E-03     198.181E-03
            2778            2865     194.635E-03     198.181E-03
            2785            2866     225.779E-03     226.305E-03
            2784            2866     225.779E-03     226.305E-03
            2779            2866     225.779E-03     226.305E-03
            2780            2866     225.779E-03     226.305E-03
            2785            2867     205.442E-03     202.975E-03
            2780            2867     205.442E-03     202.975E-03
            2781            2867     205.442E-03     202.975E-03
            2786            2867     205.442E-03     202.975E-03
            2787            2868     204.389E-03     197.340E-03
            2786            2868     204.389E-03     197.340E-03
            2781            2868     204.389E-03     197.340E-03
            2782            2868     204.389E-03     197.340E-03
            2782            2869     203.384E-03     197.866E-03
            2783            2869     203.384E-03     197.866E-03
            2787            2869     203.384E-03     197.866E-03
            2788            2869     203.384E-03     197.866E-03
            2789            2870     191.394E-03     181.556E-03
            2790            2870     191.394E-03     181.556E-03
            2785            2870     191.394E-03     181.556E-03
            2784            2870     191.394E-03     181.556E-03
            2786            2871     190.876E-03     180.066E-03
            2790            2871     190.876E-03     180.066E-03
            2791            2871     190.876E-03     180.066E-03
            2785            2871     190.876E-03     180.066E-03
            2787            2872     197.833E-03     188.670E-03
            2786            2872     197.833E-03     188.670E-03
            2792            2872     197.833E-03     188.670E-03
            2791            2872     197.833E-03     188.670E-03
            2788            2873     201.725E-03     199.295E-03
            2793            2873     201.725E-03     199.295E-03
            2787            2873     201.725E-03     199.295E-03
            2792            2873     201.725E-03     199.295E-03
            2794            2874     132.662E-03     146.991E-03
            2789            2874     132.662E-03     146.991E-03
            2790            2874     132.662E-03     146.991E-03
            2795            2874     132.662E-03     146.991E-03
            2796            2875     150.501E-03     162.159E-03
            2791            2875     150.501E-03     162.159E-03
            2795            2875     150.501E-03     162.159E-03
            2790            2875     150.501E-03     162.159E-03
            2791            2876     177.177E-03     182.476E-03
            2797            2876     177.177E-03     182.476E-03
            2796            2876     177.177E-03     182.476E-03
            2792            2876     177.177E-03     182.476E-03
            2792            2877     194.019E-03     196.116E-03
            2798            2877     194.019E-03     196.116E-03
            2793            2877     194.019E-03     196.116E-03
            2797            2877     194.019E-03     196.116E-03
            2795            2878     106.030E-03     98.1781E-03
            2800            2878     106.030E-03     98.1781E-03
            2799            2878     106.030E-03     98.1781E-03
            2794            2878     106.030E-03     98.1781E-03
            2800            2879     138.202E-03     133.611E-03
            2795            2879     138.202E-03     133.611E-03
            2801            2879     138.202E-03     133.611E-03
            2796            2879     138.202E-03     133.611E-03
            2797            2880     171.641E-03     171.034E-03
            2801            2880     171.641E-03     171.034E-03
            2802            2880     171.641E-03     171.034E-03
            2796            2880     171.641E-03     171.034E-03
            2803            2881     192.948E-03     192.342E-03
            2802            2881     192.948E-03     192.342E-03
            2797            2881     192.948E-03     192.342E-03
            2798            2881     192.948E-03     192.342E-03
            2800            2882     72.0369E-03     73.4780E-03
            2804            2882     72.0369E-03     73.4780E-03
            2805            2882     72.0369E-03     73.4780E-03
            2799            2882     72.0369E-03     73.4780E-03
            2801            2883     123.111E-03     126.228E-03
            2805            2883     123.111E-03     126.228E-03
            2806            2883     123.111E-03     126.228E-03
            2800            2883     123.111E-03     126.228E-03
            2807            2884     163.781E-03     166.635E-03
            2801            2884     163.781E-03     166.635E-03
            2806            2884     163.781E-03     166.635E-03
            2802            2884     163.781E-03     166.635E-03
            2808            2885     191.370E-03     190.583E-03
            2802            2885     191.370E-03     190.583E-03
            2803            2885     191.370E-03     190.583E-03
            2807            2885     191.370E-03     190.583E-03
            2810            2886     63.1976E-03     70.8689E-03
            2804            2886     63.1976E-03     70.8689E-03
            2809            2886     63.1976E-03     70.8689E-03
            2805            2886     63.1976E-03     70.8689E-03
            2811            2887     117.275E-03     121.148E-03
            2806            2887     117.275E-03     121.148E-03
            2805            2887     117.275E-03     121.148E-03
            2810            2887     117.275E-03     121.148E-03
            2812            2888     158.777E-03     160.855E-03
            2806            2888     158.777E-03     160.855E-03
            2807            2888     158.777E-03     160.855E-03
            2811            2888     158.777E-03     160.855E-03
            2812            2889     190.337E-03     188.196E-03
            2813            2889     190.337E-03     188.196E-03
            2808            2889     190.337E-03     188.196E-03
            2807            2889     190.337E-03     188.196E-03
            2814            2890     64.5981E-03     68.9597E-03
            2815            2890     64.5981E-03     68.9597E-03
            2810            2890     64.5981E-03     68.9597E-03
            2809            2890     64.5981E-03     68.9597E-03
            2816            2891     101.869E-03     102.557E-03
            2810            2891     101.869E-03     102.557E-03
            2811            2891     101.869E-03     102.557E-03
            2815            2891     101.869E-03     102.557E-03
            2816            2892     132.669E-03     132.813E-03
            2817            2892     132.669E-03     132.813E-03
            2811            2892     132.669E-03     132.813E-03
            2812            2892     132.669E-03     132.813E-03
            2817            2893     154.617E-03     153.762E-03
            2813            2893     154.617E-03     153.762E-03
            2818            2893     154.617E-03     153.762E-03
            2812            2893     154.617E-03     153.762E-03
            2858            2912     353.377E-06     354.350E-06
            2853            2912     353.377E-06     354.350E-06
            2852            2912     353.377E-06     354.350E-06
            2857            2912     353.377E-06     354.350E-06
            2854            2913     307.499E-06     305.165E-06
            2853            2913     307.499E-06     305.165E-06
            2858            2913     307.499E-06     305.165E-06
            2859            2913     307.499E-06     305.165E-06
            2854            2914     322.513E-06     312.684E-06
            2860            2914     322.513E-06     312.684E-06
            2859            2914     322.513E-06     312.684E-06
            2855            2914     322.513E-06     312.684E-06
            2856            2915     339.957E-06     330.107E-06
            2860            2915     339.957E-06     330.107E-06
            2861            2915     339.957E-06     330.107E-06
            2855            2915     339.957E-06     330.107E-06
            2858            2916     277.191E-06     263.530E-06
            2863            2916     277.191E-06     263.530E-06
            2862            2916     277.191E-06     263.530E-06
            2857            2916     277.191E-06     263.530E-06
            2858            2917     276.255E-06     256.909E-06
            2864            2917     276.255E-06     256.909E-06
            2863            2917     276.255E-06     256.909E-06
            2859            2917     276.255E-06     256.909E-06
            2859            2918     309.256E-06     293.904E-06
            2860            2918     309.256E-06     293.904E-06
            2865            2918     309.256E-06     293.904E-06
            2864            2918     309.256E-06     293.904E-06
            2865            2919     336.417E-06     330.534E-06
            2866            2919     336.417E-06     330.534E-06
            2861            2919     336.417E-06     330.534E-06
            2860            2919     336.417E-06     330.534E-06
            2863            2920     167.354E-06     182.845E-06
            2862            2920     167.354E-06     182.845E-06
            2868            2920     167.354E-06     182.845E-06
            2867            2920     167.354E-06     182.845E-06
            2863            2921     203.026E-06     216.414E-06
            2864            2921     203.026E-06     216.414E-06
            2868            2921     203.026E-06     216.414E-06
            2869            2921     203.026E-06     216.414E-06
            2865            2922     273.948E-06     282.121E-06
            2870            2922     273.948E-06     282.121E-06
            2869            2922     273.948E-06     282.121E-06
            2864            2922     273.948E-06     282.121E-06
            2871            2923     322.925E-06     324.580E-06
            2870            2923     322.925E-06     324.580E-06
            2865            2923     322.925E-06     324.580E-06
            2866            2923     322.925E-06     324.580E-06
            2868            2924     121.635E-06     107.131E-06
            2867            2924     121.635E-06     107.131E-06
            2873            2924     121.635E-06     107.131E-06
            2872            2924     121.635E-06     107.131E-06
            2873            2925     179.248E-06     173.227E-06
            2868            2925     179.248E-06     173.227E-06
            2869            2925     179.248E-06     173.227E-06
            2874            2925     179.248E-06     173.227E-06
            2875            2926     265.472E-06     264.647E-06
            2870            2926     265.472E-06     264.647E-06
            2874            2926     265.472E-06     264.647E-06
            2869            2926     265.472E-06     264.647E-06
            2870            2927     323.845E-06     319.038E-06
            2876            2927     323.845E-06     319.038E-06
            2871            2927     323.845E-06     319.038E-06
            2875            2927     323.845E-06     319.038E-06
            2877            2928     96.2244E-06     119.610E-06
            2873            2928     96.2244E-06     119.610E-06
            2878            2928     96.2244E-06     119.610E-06
            2872            2928     96.2244E-06     119.610E-06
            2873            2929     162.156E-06     170.716E-06
            2874            2929     162.156E-06     170.716E-06
            2879            2929     162.156E-06     170.716E-06
            2878            2929     162.156E-06     170.716E-06
            2879            2930     256.526E-06     257.008E-06
            2880            2930     256.526E-06     257.008E-06
            2874            2930     256.526E-06     257.008E-06
            2875            2930     256.526E-06     257.008E-06
            2876            2931     321.485E-06     315.823E-06
            2881            2931     321.485E-06     315.823E-06
            2880            2931     321.485E-06     315.823E-06
            2875            2931     321.485E-06     315.823E-06
            3192            3177     339.957E-06     330.107E-06
            3187            3177     339.957E-06     330.107E-06
            3188            3177     339.957E-06     330.107E-06
            3193            3177     339.957E-06     330.107E-06
            3193            3178     322.513E-06     312.684E-06
            3189            3178     322.513E-06     312.684E-06
            3188            3178     322.513E-06     312.684E-06
            3194            3178     322.513E-06     312.684E-06
            3194            3179     307.499E-06     305.165E-06
            3190            3179     307.499E-06     305.165E-06
            3195            3179     307.499E-06     305.165E-06
            3189            3179     307.499E-06     305.165E-06
            3195            3180     353.377E-06     354.350E-06
            3196            3180     353.377E-06     354.350E-06
            3190            3180     353.377E-06     354.350E-06
            3191            3180     353.377E-06     354.350E-06
            3198            3181     336.417E-06     330.534E-06
            3193            3181     336.417E-06     330.534E-06
            3197            3181     336.417E-06     330.534E-06
            3192            3181     336.417E-06     330.534E-06
            3194            3182     309.256E-06     293.904E-06
            3198            3182     309.256E-06     293.904E-06
            3193            3182     309.256E-06     293.904E-06
            3199            3182     309.256E-06     293.904E-06
            3199            3183     276.255E-06     256.909E-06
            3194            3183     276.255E-06     256.909E-06
            3200            3183     276.255E-06     256.909E-06
            3195            3183     276.255E-06     256.909E-06
            3200            3184     277.191E-06     263.530E-06
            3201            3184     277.191E-06     263.530E-06
            3195            3184     277.191E-06     263.530E-06
            3196            3184     277.191E-06     263.530E-06
            3203            3185     322.925E-06     324.580E-06
            3202            3185     322.925E-06     324.580E-06
            3197            3185     322.925E-06     324.580E-06
            3198            3185     322.925E-06     324.580E-06
            3199            3186     273.948E-06     282.121E-06
            3203            3186     273.948E-06     282.121E-06
            3204            3186     273.948E-06     282.121E-06
            3198            3186     273.948E-06     282.121E-06
            3204            3187     203.026E-06     216.414E-06
            3199            3187     203.026E-06     216.414E-06
            3200            3187     203.026E-06     216.414E-06
            3205            3187     203.026E-06     216.414E-06
            3205            3188     167.354E-06     182.845E-06
            3200            3188     167.354E-06     182.845E-06
            3201            3188     167.354E-06     182.845E-06
            3206            3188     167.354E-06     182.845E-06
            3203            3189     323.845E-06     319.038E-06
            3208            3189     323.845E-06     319.038E-06
            3202            3189     323.845E-06     319.038E-06
            3207            3189     323.845E-06     319.038E-06
            3203            3190     265.472E-06     264.647E-06
            3204            3190     265.472E-06     264.647E-06
            3208            3190     265.472E-06     264.647E-06
            3209            3190     265.472E-06     264.647E-06
            3205            3191     179.248E-06     173.227E-06
            3209            3191     179.248E-06     173.227E-06
            3210            3191     179.248E-06     173.227E-06
            3204            3191     179.248E-06     173.227E-06
            3210            3192     121.635E-06     107.131E-06
            3206            3192     121.635E-06     107.131E-06
            3205            3192     121.635E-06     107.131E-06
            3211            3192     121.635E-06     107.131E-06
            3213            3193     321.485E-06     315.823E-06
            3212            3193     321.485E-06     315.823E-06
            3207            3193     321.485E-06     315.823E-06
            3208            3193     321.485E-06     315.823E-06
            3214            3194     256.526E-06     257.008E-06
            3208            3194     256.526E-06     257.008E-06
            3213            3194     256.526E-06     257.008E-06
            3209            3194     256.526E-06     257.008E-06
            3214            3195     162.156E-06     170.716E-06
            3209            3195     162.156E-06     170.716E-06
            3210            3195     162.156E-06     170.716E-06
            3215            3195     162.156E-06     170.716E-06
            3215            3196     96.2244E-06     119.610E-06
            3210            3196     96.2244E-06     119.610E-06
            3211            3196     96.2244E-06     119.610E-06
            3216            3196     96.2244E-06     119.610E-06


  Minimum                            80.5978E-06     97.4709E-06
      At Element                            1643            3211
            Node                             151             597

  Maximum                            454.827E-03     465.401E-03
      At Element                            2745            2745
            Node                             389              20

           Total                         372.097         377.418


Field Output reported at element nodes for region: CRJ700-1.Region_2
   Computation algorithm: EXTRAPOLATE_COMPUTE_AVERAGE
   Averaged at nodes
   Averaging regions: ODB_REGIONS

   Element Label      Node Label         S.Mises         S.Mises
                                          @Loc 1          @Loc 2
-----------------------------------------------------------------
            2030               2     20.3318E-03     20.1754E-03
             841               2     20.3318E-03     20.1754E-03
             981               3     328.414E-03     315.635E-03
            2129               3     328.414E-03     315.635E-03
             963               5     20.3215E-03     20.1652E-03
             859               5     20.3215E-03     20.1652E-03
             978               6     309.340E-06     312.898E-06
             856               9     309.340E-06     312.898E-06
            2225              11     315.962E-03     304.348E-03
             958              11     315.962E-03     304.348E-03
             861              13     20.1540E-03     20.0073E-03
            2028              13     20.1540E-03     20.0073E-03
             843              13     20.1540E-03     20.0073E-03
             961              13     20.1540E-03     20.0073E-03
             976              14     408.271E-06     406.589E-06
             858              14     408.271E-06     406.589E-06
            2227              15     73.7719E-03     74.2729E-03
             960              15     73.7719E-03     74.2729E-03
            2127              15     73.7719E-03     74.2729E-03
             979              15     73.7719E-03     74.2729E-03
            2839              16     394.132E-03     384.961E-03
             993              16     394.132E-03     384.961E-03
             991              17     128.120E-03     128.350E-03
            2239              17     128.120E-03     128.350E-03
            2837              17     128.120E-03     128.350E-03
            2132              17     128.120E-03     128.350E-03
            2130              20     402.569E-03     383.801E-03
            2237              20     402.569E-03     383.801E-03
            2242              21     274.402E-03     264.160E-03
            2851              21     274.402E-03     264.160E-03
            2882              23     279.179E-03     268.858E-03
            2142              23     279.179E-03     268.858E-03
            2849              25     207.226E-03     207.362E-03
            2884              25     207.226E-03     207.362E-03
            2144              25     207.226E-03     207.362E-03
            2240              25     207.226E-03     207.362E-03
            2746              26     50.5002E-03     50.1209E-03
            2912              26     50.5002E-03     50.1209E-03
            2272              28     50.4881E-03     50.1090E-03
            2821              28     50.4881E-03     50.1090E-03
            2914              29     50.1787E-03     49.8080E-03
            2819              29     50.1787E-03     49.8080E-03
            2748              29     50.1787E-03     49.8080E-03
            2270              29     50.1787E-03     49.8080E-03
            2836              31     309.294E-06     312.815E-06
            2763              33     408.326E-06     406.682E-06
            2834              33     408.326E-06     406.682E-06
            2761              34     309.294E-06     312.815E-06
            2033              51     48.5537E-03     48.6449E-03
            2030              51     48.5537E-03     48.6449E-03
            2036              52     55.7512E-03     57.0927E-03
            2033              52     55.7512E-03     57.0927E-03
            2036              53     55.8754E-03     57.4026E-03
            2039              53     55.8754E-03     57.4026E-03
            2039              54     62.8651E-03     63.1241E-03
            2042              54     62.8651E-03     63.1241E-03
            2042              55     72.9202E-03     72.5557E-03
            2045              55     72.9202E-03     72.5557E-03
            2048              56     86.2606E-03     85.9179E-03
            2045              56     86.2606E-03     85.9179E-03
            2051              57     105.755E-03     103.445E-03
            2048              57     105.755E-03     103.445E-03
            2054              58     94.8197E-03     90.1596E-03
            2051              58     94.8197E-03     90.1596E-03
            2057              59     83.4104E-03     83.2311E-03
            2054              59     83.4104E-03     83.2311E-03
            2057              60     101.484E-03     103.931E-03
            2060              60     101.484E-03     103.931E-03
            2060              61     116.557E-03     116.450E-03
            2063              61     116.557E-03     116.450E-03
            2063              62     133.570E-03     133.687E-03
            2066              62     133.570E-03     133.687E-03
            2069              63     155.067E-03     150.794E-03
            2066              63     155.067E-03     150.794E-03
            2069              64     141.856E-03     131.117E-03
            2072              64     141.856E-03     131.117E-03
            2075              65     129.468E-03     126.749E-03
            2072              65     129.468E-03     126.749E-03
            2075              66     150.932E-03     153.889E-03
            2078              66     150.932E-03     153.889E-03
            2078              67     167.826E-03     167.269E-03
            2081              67     167.826E-03     167.269E-03
            2081              68     183.183E-03     181.855E-03
            2084              68     183.183E-03     181.855E-03
            2084              69     200.692E-03     200.413E-03
            2087              69     200.692E-03     200.413E-03
            2087              70     222.229E-03     215.546E-03
            2090              70     222.229E-03     215.546E-03
            2090              71     206.303E-03     189.308E-03
            2093              71     206.303E-03     189.308E-03
            2096              72     192.315E-03     187.161E-03
            2093              72     192.315E-03     187.161E-03
            2096              73     215.709E-03     219.065E-03
            2099              73     215.709E-03     219.065E-03
            2102              74     233.352E-03     232.343E-03
            2099              74     233.352E-03     232.343E-03
            2102              75     249.199E-03     247.410E-03
            2105              75     249.199E-03     247.410E-03
            2105              76     267.212E-03     267.239E-03
            2108              76     267.212E-03     267.239E-03
            2111              77     288.699E-03     279.767E-03
            2108              77     288.699E-03     279.767E-03
            2111              78     271.945E-03     249.953E-03
            2114              78     271.945E-03     249.953E-03
            2114              79     259.617E-03     252.869E-03
            2117              79     259.617E-03     252.869E-03
            2120              80     284.816E-03     289.305E-03
            2117              80     284.816E-03     289.305E-03
            2123              81     302.059E-03     301.359E-03
            2120              81     302.059E-03     301.359E-03
            2123              82     321.474E-03     323.307E-03
            2126              82     321.474E-03     323.307E-03
            2126              83     343.339E-03     333.013E-03
            2129              83     343.339E-03     333.013E-03
             966             147     444.376E-06     437.576E-06
             963             147     444.376E-06     437.576E-06
             969             148     354.209E-06     356.879E-06
             966             148     354.209E-06     356.879E-06
             972             149     299.433E-06     303.238E-06
             969             149     299.433E-06     303.238E-06
             972             150     275.277E-06     283.074E-06
             975             150     275.277E-06     283.074E-06
             975             151     289.690E-06     296.401E-06
             978             151     289.690E-06     296.401E-06
             841             176     444.376E-06     437.576E-06
             844             176     444.376E-06     437.576E-06
             847             177     354.209E-06     356.879E-06
             844             177     354.209E-06     356.879E-06
             847             178     299.433E-06     303.238E-06
             850             178     299.433E-06     303.238E-06
             853             179     275.277E-06     283.074E-06
             850             179     275.277E-06     283.074E-06
             856             180     289.690E-06     296.401E-06
             853             180     289.690E-06     296.401E-06
             859             194     49.0203E-03     49.0673E-03
             862             194     49.0203E-03     49.0673E-03
             865             195     56.1797E-03     57.5870E-03
             862             195     56.1797E-03     57.5870E-03
             865             196     55.4675E-03     57.2155E-03
             868             196     55.4675E-03     57.2155E-03
             868             197     61.9593E-03     62.4249E-03
             871             197     61.9593E-03     62.4249E-03
             871             198     71.5780E-03     71.5388E-03
             874             198     71.5780E-03     71.5388E-03
             874             199     84.6708E-03     84.4473E-03
             877             199     84.6708E-03     84.4473E-03
             877             200     103.715E-03     101.880E-03
             880             200     103.715E-03     101.880E-03
             883             201     92.7766E-03     88.0877E-03
             880             201     92.7766E-03     88.0877E-03
             886             202     80.7066E-03     80.2775E-03
             883             202     80.7066E-03     80.2775E-03
             886             203     97.7254E-03     100.459E-03
             889             203     97.7254E-03     100.459E-03
             892             204     112.499E-03     112.652E-03
             889             204     112.499E-03     112.652E-03
             892             205     129.211E-03     129.487E-03
             895             205     129.211E-03     129.487E-03
             895             206     150.214E-03     146.525E-03
             898             206     150.214E-03     146.525E-03
             898             207     136.635E-03     125.978E-03
             901             207     136.635E-03     125.978E-03
             901             208     123.603E-03     120.548E-03
             904             208     123.603E-03     120.548E-03
             904             209     144.303E-03     147.624E-03
             907             209     144.303E-03     147.624E-03
             910             210     161.063E-03     160.647E-03
             907             210     161.063E-03     160.647E-03
             913             211     176.099E-03     175.127E-03
             910             211     176.099E-03     175.127E-03
             913             212     193.462E-03     193.270E-03
             916             212     193.462E-03     193.270E-03
             916             213     214.407E-03     208.438E-03
             919             213     214.407E-03     208.438E-03
             919             214     197.869E-03     181.071E-03
             922             214     197.869E-03     181.071E-03
             925             215     183.138E-03     177.696E-03
             922             215     183.138E-03     177.696E-03
             928             216     205.979E-03     209.740E-03
             925             216     205.979E-03     209.740E-03
             931             217     223.562E-03     222.730E-03
             928             217     223.562E-03     222.730E-03
             934             218     239.109E-03     237.721E-03
             931             218     239.109E-03     237.721E-03
             934             219     256.982E-03     257.127E-03
             937             219     256.982E-03     257.127E-03
             937             220     277.808E-03     269.692E-03
             940             220     277.808E-03     269.692E-03
             943             221     260.478E-03     238.814E-03
             940             221     260.478E-03     238.814E-03
             946             222     247.431E-03     240.525E-03
             943             222     247.431E-03     240.525E-03
             946             223     272.230E-03     277.108E-03
             949             223     272.230E-03     277.108E-03
             949             224     289.488E-03     289.105E-03
             952             224     289.488E-03     289.105E-03
             955             225     308.532E-03     310.599E-03
             952             225     308.532E-03     310.599E-03
             958             226     329.715E-03     320.274E-03
             955             226     329.715E-03     320.274E-03
             842             264     20.2689E-03     20.1175E-03
            2030             264     20.2689E-03     20.1175E-03
             841             264     20.2689E-03     20.1175E-03
            2029             264     20.2689E-03     20.1175E-03
             843             265     20.1805E-03     20.0339E-03
            2029             265     20.1805E-03     20.0339E-03
            2028             265     20.1805E-03     20.0339E-03
             842             265     20.1805E-03     20.0339E-03
             846             266     406.267E-06     413.955E-06
             964             266     406.267E-06     413.955E-06
             961             266     406.267E-06     413.955E-06
             843             266     406.267E-06     413.955E-06
             964             267     441.023E-06     451.388E-06
             846             267     441.023E-06     451.388E-06
             967             267     441.023E-06     451.388E-06
             849             267     441.023E-06     451.388E-06
             967             268     455.827E-06     461.004E-06
             852             268     455.827E-06     461.004E-06
             970             268     455.827E-06     461.004E-06
             849             268     455.827E-06     461.004E-06
             855             269     441.986E-06     441.785E-06
             973             269     441.986E-06     441.785E-06
             970             269     441.986E-06     441.785E-06
             852             269     441.986E-06     441.785E-06
             858             270     418.699E-06     417.148E-06
             855             270     418.699E-06     417.148E-06
             976             270     418.699E-06     417.148E-06
             973             270     418.699E-06     417.148E-06
             858             271     398.155E-06     397.349E-06
             857             271     398.155E-06     397.349E-06
             856             272     348.690E-06     350.504E-06
             857             272     348.690E-06     350.504E-06
             860             273     20.2606E-03     20.1093E-03
             962             273     20.2606E-03     20.1093E-03
             963             273     20.2606E-03     20.1093E-03
             859             273     20.2606E-03     20.1093E-03
             962             274     20.1764E-03     20.0299E-03
             861             274     20.1764E-03     20.0299E-03
             860             274     20.1764E-03     20.0299E-03
             961             274     20.1764E-03     20.0299E-03
             864             275     60.0726E-03     59.4143E-03
            2028             275     60.0726E-03     59.4143E-03
             861             275     60.0726E-03     59.4143E-03
            2031             275     60.0726E-03     59.4143E-03
             864             276     82.5319E-03     81.0300E-03
            2031             276     82.5319E-03     81.0300E-03
             867             276     82.5319E-03     81.0300E-03
            2034             276     82.5319E-03     81.0300E-03
            2034             277     86.9849E-03     85.2050E-03
            2037             277     86.9849E-03     85.2050E-03
             867             277     86.9849E-03     85.2050E-03
             870             277     86.9849E-03     85.2050E-03
            2040             278     90.0532E-03     89.1408E-03
             873             278     90.0532E-03     89.1408E-03
            2037             278     90.0532E-03     89.1408E-03
             870             278     90.0532E-03     89.1408E-03
             876             279     90.7372E-03     91.5046E-03
             873             279     90.7372E-03     91.5046E-03
            2043             279     90.7372E-03     91.5046E-03
            2040             279     90.7372E-03     91.5046E-03
             876             280     87.1994E-03     89.2533E-03
             879             280     87.1994E-03     89.2533E-03
            2043             280     87.1994E-03     89.2533E-03
            2046             280     87.1994E-03     89.2533E-03
            2049             281     79.3048E-03     80.8725E-03
             882             281     79.3048E-03     80.8725E-03
            2046             281     79.3048E-03     80.8725E-03
             879             281     79.3048E-03     80.8725E-03
             882             282     81.7075E-03     80.8658E-03
            2052             282     81.7075E-03     80.8658E-03
            2049             282     81.7075E-03     80.8658E-03
             885             282     81.7075E-03     80.8658E-03
             888             283     88.5781E-03     85.0909E-03
             885             283     88.5781E-03     85.0909E-03
            2052             283     88.5781E-03     85.0909E-03
            2055             283     88.5781E-03     85.0909E-03
            2055             284     90.5379E-03     87.0659E-03
             891             284     90.5379E-03     87.0659E-03
            2058             284     90.5379E-03     87.0659E-03
             888             284     90.5379E-03     87.0659E-03
             891             285     93.3269E-03     93.7744E-03
            2058             285     93.3269E-03     93.7744E-03
             894             285     93.3269E-03     93.7744E-03
            2061             285     93.3269E-03     93.7744E-03
             897             286     89.8519E-03     93.8799E-03
            2061             286     89.8519E-03     93.8799E-03
            2064             286     89.8519E-03     93.8799E-03
             894             286     89.8519E-03     93.8799E-03
            2064             287     79.7835E-03     82.8986E-03
            2067             287     79.7835E-03     82.8986E-03
             900             287     79.7835E-03     82.8986E-03
             897             287     79.7835E-03     82.8986E-03
             903             288     84.3763E-03     82.8744E-03
            2067             288     84.3763E-03     82.8744E-03
             900             288     84.3763E-03     82.8744E-03
            2070             288     84.3763E-03     82.8744E-03
             903             289     93.8483E-03     87.5440E-03
             906             289     93.8483E-03     87.5440E-03
            2070             289     93.8483E-03     87.5440E-03
            2073             289     93.8483E-03     87.5440E-03
             909             290     93.8881E-03     87.3230E-03
            2076             290     93.8881E-03     87.3230E-03
             906             290     93.8881E-03     87.3230E-03
            2073             290     93.8881E-03     87.3230E-03
            2079             291     96.5229E-03     94.1638E-03
            2076             291     96.5229E-03     94.1638E-03
             909             291     96.5229E-03     94.1638E-03
             912             291     96.5229E-03     94.1638E-03
             915             292     99.0312E-03     102.762E-03
            2082             292     99.0312E-03     102.762E-03
            2079             292     99.0312E-03     102.762E-03
             912             292     99.0312E-03     102.762E-03
            2082             293     94.6617E-03     102.155E-03
             918             293     94.6617E-03     102.155E-03
            2085             293     94.6617E-03     102.155E-03
             915             293     94.6617E-03     102.155E-03
             918             294     82.0738E-03     86.9755E-03
            2085             294     82.0738E-03     86.9755E-03
            2088             294     82.0738E-03     86.9755E-03
             921             294     82.0738E-03     86.9755E-03
            2088             295     89.6638E-03     87.3128E-03
            2091             295     89.6638E-03     87.3128E-03
             921             295     89.6638E-03     87.3128E-03
             924             295     89.6638E-03     87.3128E-03
             924             296     101.855E-03     93.0336E-03
            2094             296     101.855E-03     93.0336E-03
            2091             296     101.855E-03     93.0336E-03
             927             296     101.855E-03     93.0336E-03
             927             297     99.9118E-03     91.3679E-03
            2097             297     99.9118E-03     91.3679E-03
             930             297     99.9118E-03     91.3679E-03
            2094             297     99.9118E-03     91.3679E-03
             933             298     102.417E-03     99.8137E-03
            2100             298     102.417E-03     99.8137E-03
            2097             298     102.417E-03     99.8137E-03
             930             298     102.417E-03     99.8137E-03
             933             299     105.753E-03     111.172E-03
            2103             299     105.753E-03     111.172E-03
            2100             299     105.753E-03     111.172E-03
             936             299     105.753E-03     111.172E-03
             939             300     100.926E-03     111.075E-03
            2103             300     100.926E-03     111.075E-03
            2106             300     100.926E-03     111.075E-03
             936             300     100.926E-03     111.075E-03
            2106             301     86.2702E-03     92.2901E-03
             942             301     86.2702E-03     92.2901E-03
            2109             301     86.2702E-03     92.2901E-03
             939             301     86.2702E-03     92.2901E-03
            2112             302     97.7079E-03     94.5937E-03
             945             302     97.7079E-03     94.5937E-03
             942             302     97.7079E-03     94.5937E-03
            2109             302     97.7079E-03     94.5937E-03
            2112             303     111.880E-03     101.962E-03
             945             303     111.880E-03     101.962E-03
            2115             303     111.880E-03     101.962E-03
             948             303     111.880E-03     101.962E-03
             951             304     108.330E-03     100.836E-03
            2115             304     108.330E-03     100.836E-03
            2118             304     108.330E-03     100.836E-03
             948             304     108.330E-03     100.836E-03
            2121             305     112.007E-03     115.825E-03
             954             305     112.007E-03     115.825E-03
             951             305     112.007E-03     115.825E-03
            2118             305     112.007E-03     115.825E-03
            2124             306     106.579E-03     117.456E-03
             954             306     106.579E-03     117.456E-03
             957             306     106.579E-03     117.456E-03
            2121             306     106.579E-03     117.456E-03
            2124             307     90.5974E-03     96.6143E-03
             957             307     90.5974E-03     96.6143E-03
            2127             307     90.5974E-03     96.6143E-03
             960             307     90.5974E-03     96.6143E-03
             959             308     123.439E-03     120.928E-03
            2226             308     123.439E-03     120.928E-03
             960             308     123.439E-03     120.928E-03
            2227             308     123.439E-03     120.928E-03
            2226             309     246.905E-03     238.069E-03
             958             309     246.905E-03     238.069E-03
             959             309     246.905E-03     238.069E-03
            2225             309     246.905E-03     238.069E-03
             978             310     348.690E-06     350.504E-06
             977             310     348.690E-06     350.504E-06
             976             311     398.155E-06     397.349E-06
             977             311     398.155E-06     397.349E-06
            2128             312     133.899E-03     130.353E-03
            2127             312     133.899E-03     130.353E-03
             979             312     133.899E-03     130.353E-03
             980             312     133.899E-03     130.353E-03
             980             313     258.849E-03     248.931E-03
             981             313     258.849E-03     248.931E-03
            2129             313     258.849E-03     248.931E-03
            2128             313     258.849E-03     248.931E-03
             981             314     303.589E-03     292.493E-03
             984             314     303.589E-03     292.493E-03
             984             315     323.614E-03     317.997E-03
             987             315     323.614E-03     317.997E-03
             990             316     355.709E-03     365.331E-03
             987             316     355.709E-03     365.331E-03
             990             317     376.838E-03     371.429E-03
             993             317     376.838E-03     371.429E-03
            2838             318     312.734E-03     306.786E-03
            2839             318     312.734E-03     306.786E-03
             993             318     312.734E-03     306.786E-03
             992             318     312.734E-03     306.786E-03
            2837             319     178.499E-03     178.948E-03
             992             319     178.499E-03     178.948E-03
            2838             319     178.499E-03     178.948E-03
             991             319     178.499E-03     178.948E-03
             991             320     94.7240E-03     99.0794E-03
             988             320     94.7240E-03     99.0794E-03
            2236             320     94.7240E-03     99.0794E-03
            2239             320     94.7240E-03     99.0794E-03
            2233             321     111.771E-03     117.627E-03
             985             321     111.771E-03     117.627E-03
            2236             321     111.771E-03     117.627E-03
             988             321     111.771E-03     117.627E-03
             985             322     124.685E-03     123.899E-03
            2233             322     124.685E-03     123.899E-03
             982             322     124.685E-03     123.899E-03
            2230             322     124.685E-03     123.899E-03
             982             323     98.1408E-03     95.6019E-03
            2230             323     98.1408E-03     95.6019E-03
             979             323     98.1408E-03     95.6019E-03
            2227             323     98.1408E-03     95.6019E-03
            2237             389     379.264E-03     368.892E-03
            2234             389     379.264E-03     368.892E-03
            2234             390     355.898E-03     364.645E-03
            2231             390     355.898E-03     364.645E-03
            2228             391     320.606E-03     320.308E-03
            2231             391     320.606E-03     320.308E-03
            2225             392     293.516E-03     291.795E-03
            2228             392     293.516E-03     291.795E-03
            2842             393     355.333E-03     354.883E-03
            2839             393     355.333E-03     354.883E-03
            2845             394     341.004E-03     334.369E-03
            2842             394     341.004E-03     334.369E-03
            2848             395     346.524E-03     347.989E-03
            2845             395     346.524E-03     347.989E-03
            2851             396     278.866E-03     279.512E-03
            2848             396     278.866E-03     279.512E-03
            2133             420     362.321E-03     361.768E-03
            2130             420     362.321E-03     361.768E-03
            2136             421     347.325E-03     340.984E-03
            2133             421     347.325E-03     340.984E-03
            2136             422     353.384E-03     353.518E-03
            2139             422     353.384E-03     353.518E-03
            2142             423     283.948E-03     285.378E-03
            2139             423     283.948E-03     285.378E-03
            2130             432     320.270E-03     305.729E-03
            2237             432     320.270E-03     305.729E-03
            2238             432     320.270E-03     305.729E-03
            2131             432     320.270E-03     305.729E-03
            2131             433     184.275E-03     177.536E-03
            2132             433     184.275E-03     177.536E-03
            2239             433     184.275E-03     177.536E-03
            2238             433     184.275E-03     177.536E-03
            2837             434     201.589E-03     201.694E-03
            2840             434     201.589E-03     201.694E-03
            2135             434     201.589E-03     201.694E-03
            2132             434     201.589E-03     201.694E-03
            2843             435     205.546E-03     205.142E-03
            2840             435     205.546E-03     205.142E-03
            2135             435     205.546E-03     205.142E-03
            2138             435     205.546E-03     205.142E-03
            2843             436     192.185E-03     191.547E-03
            2846             436     192.185E-03     191.547E-03
            2141             436     192.185E-03     191.547E-03
            2138             436     192.185E-03     191.547E-03
            2141             437     219.748E-03     220.472E-03
            2846             437     219.748E-03     220.472E-03
            2849             437     219.748E-03     220.472E-03
            2144             437     219.748E-03     220.472E-03
            2143             438     222.760E-03     221.282E-03
            2144             438     222.760E-03     221.282E-03
            2883             438     222.760E-03     221.282E-03
            2884             438     222.760E-03     221.282E-03
            2882             439     258.425E-03     251.713E-03
            2883             439     258.425E-03     251.713E-03
            2142             439     258.425E-03     251.713E-03
            2143             439     258.425E-03     251.713E-03
            2882             444     289.124E-03     289.299E-03
            2885             444     289.124E-03     289.299E-03
            2888             445     227.200E-03     228.571E-03
            2885             445     227.200E-03     228.571E-03
            2888             446     237.652E-03     229.227E-03
            2891             446     237.652E-03     229.227E-03
            2894             447     258.295E-03     252.891E-03
            2891             447     258.295E-03     252.891E-03
            2897             448     210.861E-03     210.102E-03
            2894             448     210.861E-03     210.102E-03
            2897             449     178.461E-03     177.854E-03
            2900             449     178.461E-03     177.854E-03
            2900             450     154.454E-03     155.297E-03
            2903             450     154.454E-03     155.297E-03
            2906             451     138.278E-03     142.165E-03
            2903             451     138.278E-03     142.165E-03
            2906             452     139.139E-03     142.377E-03
            2909             452     139.139E-03     142.377E-03
            2909             453     121.554E-03     121.703E-03
            2912             453     121.554E-03     121.703E-03
            2240             468     220.675E-03     219.166E-03
            2849             468     220.675E-03     219.166E-03
            2850             468     220.675E-03     219.166E-03
            2241             468     220.675E-03     219.166E-03
            2242             469     254.575E-03     247.883E-03
            2851             469     254.575E-03     247.883E-03
            2241             469     254.575E-03     247.883E-03
            2850             469     254.575E-03     247.883E-03
            2242             470     284.246E-03     285.610E-03
            2245             470     284.246E-03     285.610E-03
            2245             471     224.043E-03     224.783E-03
            2248             471     224.043E-03     224.783E-03
            2251             472     235.057E-03     226.571E-03
            2248             472     235.057E-03     226.571E-03
            2254             473     255.773E-03     250.977E-03
            2251             473     255.773E-03     250.977E-03
            2254             474     208.903E-03     208.302E-03
            2257             474     208.903E-03     208.302E-03
            2257             475     176.807E-03     176.621E-03
            2260             475     176.807E-03     176.621E-03
            2260             476     153.344E-03     154.460E-03
            2263             476     153.344E-03     154.460E-03
            2266             477     137.791E-03     141.959E-03
            2263             477     137.791E-03     141.959E-03
            2266             478     139.689E-03     143.006E-03
            2269             478     139.689E-03     143.006E-03
            2269             479     122.140E-03     122.234E-03
            2272             479     122.140E-03     122.234E-03
            2820             480     50.3799E-03     50.0054E-03
            2271             480     50.3799E-03     50.0054E-03
            2821             480     50.3799E-03     50.0054E-03
            2272             480     50.3799E-03     50.0054E-03
            2271             481     50.2246E-03     49.8543E-03
            2820             481     50.2246E-03     49.8543E-03
            2819             481     50.2246E-03     49.8543E-03
            2270             481     50.2246E-03     49.8543E-03
            2270             482     149.836E-03     148.246E-03
            2914             482     149.836E-03     148.246E-03
            2267             482     149.836E-03     148.246E-03
            2911             482     149.836E-03     148.246E-03
            2267             483     205.281E-03     201.688E-03
            2264             483     205.281E-03     201.688E-03
            2908             483     205.281E-03     201.688E-03
            2911             483     205.281E-03     201.688E-03
            2908             484     216.215E-03     211.906E-03
            2261             484     216.215E-03     211.906E-03
            2264             484     216.215E-03     211.906E-03
            2905             484     216.215E-03     211.906E-03
            2905             485     223.967E-03     221.720E-03
            2261             485     223.967E-03     221.720E-03
            2902             485     223.967E-03     221.720E-03
            2258             485     223.967E-03     221.720E-03
            2902             486     225.515E-03     227.368E-03
            2258             486     225.515E-03     227.368E-03
            2255             486     225.515E-03     227.368E-03
            2899             486     225.515E-03     227.368E-03
            2899             487     216.412E-03     221.356E-03
            2252             487     216.412E-03     221.356E-03
            2255             487     216.412E-03     221.356E-03
            2896             487     216.412E-03     221.356E-03
            2893             488     197.073E-03     200.813E-03
            2896             488     197.073E-03     200.813E-03
            2249             488     197.073E-03     200.813E-03
            2252             488     197.073E-03     200.813E-03
            2890             489     204.973E-03     206.880E-03
            2893             489     204.973E-03     206.880E-03
            2249             489     204.973E-03     206.880E-03
            2246             489     204.973E-03     206.880E-03
            2243             490     211.369E-03     212.127E-03
            2246             490     211.369E-03     212.127E-03
            2887             490     211.369E-03     212.127E-03
            2890             490     211.369E-03     212.127E-03
            2887             491     189.366E-03     188.490E-03
            2240             491     189.366E-03     188.490E-03
            2243             491     189.366E-03     188.490E-03
            2884             491     189.366E-03     188.490E-03
            2824             562     443.121E-06     436.344E-06
            2821             562     443.121E-06     436.344E-06
            2824             563     353.456E-06     356.137E-06
            2827             563     353.456E-06     356.137E-06
            2827             564     299.014E-06     302.854E-06
            2830             564     299.014E-06     302.854E-06
            2833             565     275.252E-06     283.016E-06
            2830             565     275.252E-06     283.016E-06
            2836             566     289.769E-06     296.418E-06
            2833             566     289.769E-06     296.418E-06
            2913             587     50.3896E-03     50.0149E-03
            2912             587     50.3896E-03     50.0149E-03
            2747             587     50.3896E-03     50.0149E-03
            2746             587     50.3896E-03     50.0149E-03
            2914             588     50.2295E-03     49.8591E-03
            2748             588     50.2295E-03     49.8591E-03
            2913             588     50.2295E-03     49.8591E-03
            2747             588     50.2295E-03     49.8591E-03
            2748             589     406.157E-06     413.765E-06
            2822             589     406.157E-06     413.765E-06
            2751             589     406.157E-06     413.765E-06
            2819             589     406.157E-06     413.765E-06
            2751             590     440.722E-06     451.024E-06
            2754             590     440.722E-06     451.024E-06
            2825             590     440.722E-06     451.024E-06
            2822             590     440.722E-06     451.024E-06
            2825             591     455.565E-06     460.773E-06
            2828             591     455.565E-06     460.773E-06
            2754             591     455.565E-06     460.773E-06
            2757             591     455.565E-06     460.773E-06
            2828             592     441.800E-06     441.669E-06
            2760             592     441.800E-06     441.669E-06
            2831             592     441.800E-06     441.669E-06
            2757             592     441.800E-06     441.669E-06
            2831             593     418.646E-06     417.144E-06
            2760             593     418.646E-06     417.144E-06
            2834             593     418.646E-06     417.144E-06
            2763             593     418.646E-06     417.144E-06
            2762             594     398.202E-06     397.429E-06
            2763             594     398.202E-06     397.429E-06
            2762             595     348.686E-06     350.496E-06
            2761             595     348.686E-06     350.496E-06
            2758             596     289.769E-06     296.418E-06
            2761             596     289.769E-06     296.418E-06
            2758             597     275.252E-06     283.016E-06
            2755             597     275.252E-06     283.016E-06
            2752             598     299.014E-06     302.854E-06
            2755             598     299.014E-06     302.854E-06
            2752             599     353.456E-06     356.137E-06
            2749             599     353.456E-06     356.137E-06
            2746             600     443.121E-06     436.344E-06
            2749             600     443.121E-06     436.344E-06
            2836             605     348.686E-06     350.496E-06
            2835             605     348.686E-06     350.496E-06
            2834             606     398.202E-06     397.429E-06
            2835             606     398.202E-06     397.429E-06
             844            1357     433.689E-06     433.719E-06
             841            1357     433.689E-06     433.719E-06
             842            1357     433.689E-06     433.719E-06
             845            1357     433.689E-06     433.719E-06
             846            1358     414.635E-06     421.909E-06
             843            1358     414.635E-06     421.909E-06
             842            1358     414.635E-06     421.909E-06
             845            1358     414.635E-06     421.909E-06
             844            1359     388.548E-06     392.960E-06
             847            1359     388.548E-06     392.960E-06
             848            1359     388.548E-06     392.960E-06
             845            1359     388.548E-06     392.960E-06
             845            1360     431.955E-06     440.214E-06
             849            1360     431.955E-06     440.214E-06
             848            1360     431.955E-06     440.214E-06
             846            1360     431.955E-06     440.214E-06
             850            1361     350.743E-06     354.330E-06
             848            1361     350.743E-06     354.330E-06
             851            1361     350.743E-06     354.330E-06
             847            1361     350.743E-06     354.330E-06
             849            1362     428.940E-06     433.213E-06
             848            1362     428.940E-06     433.213E-06
             852            1362     428.940E-06     433.213E-06
             851            1362     428.940E-06     433.213E-06
             853            1363     339.523E-06     344.397E-06
             854            1363     339.523E-06     344.397E-06
             851            1363     339.523E-06     344.397E-06
             850            1363     339.523E-06     344.397E-06
             854            1364     422.877E-06     423.752E-06
             852            1364     422.877E-06     423.752E-06
             851            1364     422.877E-06     423.752E-06
             855            1364     422.877E-06     423.752E-06
             857            1365     344.431E-06     347.717E-06
             853            1365     344.431E-06     347.717E-06
             854            1365     344.431E-06     347.717E-06
             856            1365     344.431E-06     347.717E-06
             858            1366     408.935E-06     408.090E-06
             854            1366     408.935E-06     408.090E-06
             857            1366     408.935E-06     408.090E-06
             855            1366     408.935E-06     408.090E-06
             859            1367     53.8490E-03     53.4552E-03
             860            1367     53.8490E-03     53.4552E-03
             862            1367     53.8490E-03     53.4552E-03
             863            1367     53.8490E-03     53.4552E-03
             863            1368     59.3762E-03     58.6368E-03
             861            1368     59.3762E-03     58.6368E-03
             864            1368     59.3762E-03     58.6368E-03
             860            1368     59.3762E-03     58.6368E-03
             866            1369     67.5211E-03     67.4196E-03
             865            1369     67.5211E-03     67.4196E-03
             863            1369     67.5211E-03     67.4196E-03
             862            1369     67.5211E-03     67.4196E-03
             863            1370     80.7012E-03     79.1348E-03
             867            1370     80.7012E-03     79.1348E-03
             864            1370     80.7012E-03     79.1348E-03
             866            1370     80.7012E-03     79.1348E-03
             865            1371     67.7321E-03     68.2246E-03
             868            1371     67.7321E-03     68.2246E-03
             869            1371     67.7321E-03     68.2246E-03
             866            1371     67.7321E-03     68.2246E-03
             867            1372     83.4917E-03     82.1897E-03
             870            1372     83.4917E-03     82.1897E-03
             866            1372     83.4917E-03     82.1897E-03
             869            1372     83.4917E-03     82.1897E-03
             871            1373     70.8253E-03     71.3199E-03
             872            1373     70.8253E-03     71.3199E-03
             868            1373     70.8253E-03     71.3199E-03
             869            1373     70.8253E-03     71.3199E-03
             872            1374     84.8314E-03     84.6623E-03
             870            1374     84.8314E-03     84.6623E-03
             869            1374     84.8314E-03     84.6623E-03
             873            1374     84.8314E-03     84.6623E-03
             874            1375     76.9077E-03     77.0647E-03
             871            1375     76.9077E-03     77.0647E-03
             875            1375     76.9077E-03     77.0647E-03
             872            1375     76.9077E-03     77.0647E-03
             873            1376     86.4131E-03     87.0049E-03
             876            1376     86.4131E-03     87.0049E-03
             875            1376     86.4131E-03     87.0049E-03
             872            1376     86.4131E-03     87.0049E-03
             877            1377     86.3796E-03     86.6713E-03
             878            1377     86.3796E-03     86.6713E-03
             874            1377     86.3796E-03     86.6713E-03
             875            1377     86.3796E-03     86.6713E-03
             875            1378     87.5767E-03     88.9979E-03
             876            1378     87.5767E-03     88.9979E-03
             878            1378     87.5767E-03     88.9979E-03
             879            1378     87.5767E-03     88.9979E-03
             878            1379     95.6923E-03     95.2825E-03
             881            1379     95.6923E-03     95.2825E-03
             880            1379     95.6923E-03     95.2825E-03
             877            1379     95.6923E-03     95.2825E-03
             881            1380     83.3942E-03     84.7179E-03
             878            1380     83.3942E-03     84.7179E-03
             879            1380     83.3942E-03     84.7179E-03
             882            1380     83.3942E-03     84.7179E-03
             884            1381     89.7641E-03     86.0683E-03
             881            1381     89.7641E-03     86.0683E-03
             883            1381     89.7641E-03     86.0683E-03
             880            1381     89.7641E-03     86.0683E-03
             881            1382     84.1086E-03     82.3721E-03
             882            1382     84.1086E-03     82.3721E-03
             885            1382     84.1086E-03     82.3721E-03
             884            1382     84.1086E-03     82.3721E-03
             887            1383     86.3296E-03     84.0811E-03
             883            1383     86.3296E-03     84.0811E-03
             886            1383     86.3296E-03     84.0811E-03
             884            1383     86.3296E-03     84.0811E-03
             885            1384     90.1219E-03     86.3113E-03
             887            1384     90.1219E-03     86.3113E-03
             888            1384     90.1219E-03     86.3113E-03
             884            1384     90.1219E-03     86.3113E-03
             887            1385     96.2106E-03     97.7266E-03
             889            1385     96.2106E-03     97.7266E-03
             890            1385     96.2106E-03     97.7266E-03
             886            1385     96.2106E-03     97.7266E-03
             890            1386     92.4230E-03     90.7907E-03
             887            1386     92.4230E-03     90.7907E-03
             891            1386     92.4230E-03     90.7907E-03
             888            1386     92.4230E-03     90.7907E-03
             889            1387     105.231E-03     106.350E-03
             892            1387     105.231E-03     106.350E-03
             890            1387     105.231E-03     106.350E-03
             893            1387     105.231E-03     106.350E-03
             890            1388     95.3609E-03     96.6210E-03
             894            1388     95.3609E-03     96.6210E-03
             893            1388     95.3609E-03     96.6210E-03
             891            1388     95.3609E-03     96.6210E-03
             895            1389     117.332E-03     118.878E-03
             896            1389     117.332E-03     118.878E-03
             893            1389     117.332E-03     118.878E-03
             892            1389     117.332E-03     118.878E-03
             897            1390     97.3332E-03     100.770E-03
             893            1390     97.3332E-03     100.770E-03
             896            1390     97.3332E-03     100.770E-03
             894            1390     97.3332E-03     100.770E-03
             899            1391     127.392E-03     126.360E-03
             896            1391     127.392E-03     126.360E-03
             898            1391     127.392E-03     126.360E-03
             895            1391     127.392E-03     126.360E-03
             900            1392     91.8163E-03     94.2727E-03
             896            1392     91.8163E-03     94.2727E-03
             897            1392     91.8163E-03     94.2727E-03
             899            1392     91.8163E-03     94.2727E-03
             898            1393     120.099E-03     111.667E-03
             901            1393     120.099E-03     111.667E-03
             899            1393     120.099E-03     111.667E-03
             902            1393     120.099E-03     111.667E-03
             902            1394     93.5831E-03     89.8050E-03
             899            1394     93.5831E-03     89.8050E-03
             903            1394     93.5831E-03     89.8050E-03
             900            1394     93.5831E-03     89.8050E-03
             904            1395     116.777E-03     111.817E-03
             901            1395     116.777E-03     111.817E-03
             905            1395     116.777E-03     111.817E-03
             902            1395     116.777E-03     111.817E-03
             903            1396     101.501E-03     94.8695E-03
             906            1396     101.501E-03     94.8695E-03
             902            1396     101.501E-03     94.8695E-03
             905            1396     101.501E-03     94.8695E-03
             907            1397     129.369E-03     131.385E-03
             904            1397     129.369E-03     131.385E-03
             908            1397     129.369E-03     131.385E-03
             905            1397     129.369E-03     131.385E-03
             906            1398     103.659E-03     100.623E-03
             905            1398     103.659E-03     100.623E-03
             909            1398     103.659E-03     100.623E-03
             908            1398     103.659E-03     100.623E-03
             908            1399     140.411E-03     141.659E-03
             910            1399     140.411E-03     141.659E-03
             911            1399     140.411E-03     141.659E-03
             907            1399     140.411E-03     141.659E-03
             912            1400     107.526E-03     107.762E-03
             911            1400     107.526E-03     107.762E-03
             909            1400     107.526E-03     107.762E-03
             908            1400     107.526E-03     107.762E-03
             914            1401     151.295E-03     151.967E-03
             910            1401     151.295E-03     151.967E-03
             911            1401     151.295E-03     151.967E-03
             913            1401     151.295E-03     151.967E-03
             914            1402     112.041E-03     115.088E-03
             915            1402     112.041E-03     115.088E-03
             912            1402     112.041E-03     115.088E-03
             911            1402     112.041E-03     115.088E-03
             916            1403     164.802E-03     166.949E-03
             917            1403     164.802E-03     166.949E-03
             913            1403     164.802E-03     166.949E-03
             914            1403     164.802E-03     166.949E-03
             917            1404     114.655E-03     120.703E-03
             918            1404     114.655E-03     120.703E-03
             915            1404     114.655E-03     120.703E-03
             914            1404     114.655E-03     120.703E-03
             916            1405     174.149E-03     171.508E-03
             919            1405     174.149E-03     171.508E-03
             917            1405     174.149E-03     171.508E-03
             920            1405     174.149E-03     171.508E-03
             917            1406     107.153E-03     110.126E-03
             918            1406     107.153E-03     110.126E-03
             921            1406     107.153E-03     110.126E-03
             920            1406     107.153E-03     110.126E-03
             920            1407     164.230E-03     150.348E-03
             919            1407     164.230E-03     150.348E-03
             922            1407     164.230E-03     150.348E-03
             923            1407     164.230E-03     150.348E-03
             924            1408     109.311E-03     102.779E-03
             921            1408     109.311E-03     102.779E-03
             923            1408     109.311E-03     102.779E-03
             920            1408     109.311E-03     102.779E-03
             922            1409     160.785E-03     153.480E-03
             926            1409     160.785E-03     153.480E-03
             923            1409     160.785E-03     153.480E-03
             925            1409     160.785E-03     153.480E-03
             923            1410     119.336E-03     110.263E-03
             924            1410     119.336E-03     110.263E-03
             927            1410     119.336E-03     110.263E-03
             926            1410     119.336E-03     110.263E-03
             926            1411     175.388E-03     178.422E-03
             929            1411     175.388E-03     178.422E-03
             925            1411     175.388E-03     178.422E-03
             928            1411     175.388E-03     178.422E-03
             927            1412     121.347E-03     118.041E-03
             926            1412     121.347E-03     118.041E-03
             929            1412     121.347E-03     118.041E-03
             930            1412     121.347E-03     118.041E-03
             932            1413     187.427E-03     189.188E-03
             929            1413     187.427E-03     189.188E-03
             928            1413     187.427E-03     189.188E-03
             931            1413     187.427E-03     189.188E-03
             929            1414     125.691E-03     126.465E-03
             932            1414     125.691E-03     126.465E-03
             933            1414     125.691E-03     126.465E-03
             930            1414     125.691E-03     126.465E-03
             932            1415     199.007E-03     200.130E-03
             934            1415     199.007E-03     200.130E-03
             935            1415     199.007E-03     200.130E-03
             931            1415     199.007E-03     200.130E-03
             932            1416     131.043E-03     135.594E-03
             933            1416     131.043E-03     135.594E-03
             935            1416     131.043E-03     135.594E-03
             936            1416     131.043E-03     135.594E-03
             937            1417     213.197E-03     216.470E-03
             938            1417     213.197E-03     216.470E-03
             934            1417     213.197E-03     216.470E-03
             935            1417     213.197E-03     216.470E-03
             935            1418     133.843E-03     142.246E-03
             938            1418     133.843E-03     142.246E-03
             936            1418     133.843E-03     142.246E-03
             939            1418     133.843E-03     142.246E-03
             940            1419     221.753E-03     217.486E-03
             938            1419     221.753E-03     217.486E-03
             941            1419     221.753E-03     217.486E-03
             937            1419     221.753E-03     217.486E-03
             939            1420     124.528E-03     127.621E-03
             938            1420     124.528E-03     127.621E-03
             942            1420     124.528E-03     127.621E-03
             941            1420     124.528E-03     127.621E-03
             943            1421     210.594E-03     192.201E-03
             941            1421     210.594E-03     192.201E-03
             940            1421     210.594E-03     192.201E-03
             944            1421     210.594E-03     192.201E-03
             945            1422     127.850E-03     118.914E-03
             942            1422     127.850E-03     118.914E-03
             941            1422     127.850E-03     118.914E-03
             944            1422     127.850E-03     118.914E-03
             947            1423     209.816E-03     201.437E-03
             944            1423     209.816E-03     201.437E-03
             943            1423     209.816E-03     201.437E-03
             946            1423     209.816E-03     201.437E-03
             945            1424     140.753E-03     130.751E-03
             948            1424     140.753E-03     130.751E-03
             947            1424     140.753E-03     130.751E-03
             944            1424     140.753E-03     130.751E-03
             946            1425     226.425E-03     231.701E-03
             949            1425     226.425E-03     231.701E-03
             947            1425     226.425E-03     231.701E-03
             950            1425     226.425E-03     231.701E-03
             948            1426     142.878E-03     141.722E-03
             951            1426     142.878E-03     141.722E-03
             947            1426     142.878E-03     141.722E-03
             950            1426     142.878E-03     141.722E-03
             952            1427     238.224E-03     242.322E-03
             950            1427     238.224E-03     242.322E-03
             949            1427     238.224E-03     242.322E-03
             953            1427     238.224E-03     242.322E-03
             950            1428     147.626E-03     153.701E-03
             954            1428     147.626E-03     153.701E-03
             953            1428     147.626E-03     153.701E-03
             951            1428     147.626E-03     153.701E-03
             955            1429     252.996E-03     258.625E-03
             953            1429     252.996E-03     258.625E-03
             952            1429     252.996E-03     258.625E-03
             956            1429     252.996E-03     258.625E-03
             954            1430     150.094E-03     160.281E-03
             956            1430     150.094E-03     160.281E-03
             953            1430     150.094E-03     160.281E-03
             957            1430     150.094E-03     160.281E-03
             959            1431     260.971E-03     255.981E-03
             958            1431     260.971E-03     255.981E-03
             956            1431     260.971E-03     255.981E-03
             955            1431     260.971E-03     255.981E-03
             960            1432     139.311E-03     142.438E-03
             957            1432     139.311E-03     142.438E-03
             959            1432     139.311E-03     142.438E-03
             956            1432     139.311E-03     142.438E-03
             962            1433     414.635E-06     421.909E-06
             961            1433     414.635E-06     421.909E-06
             964            1433     414.635E-06     421.909E-06
             965            1433     414.635E-06     421.909E-06
             966            1434     433.689E-06     433.719E-06
             963            1434     433.689E-06     433.719E-06
             962            1434     433.689E-06     433.719E-06
             965            1434     433.689E-06     433.719E-06
             965            1435     431.955E-06     440.214E-06
             964            1435     431.955E-06     440.214E-06
             967            1435     431.955E-06     440.214E-06
             968            1435     431.955E-06     440.214E-06
             969            1436     388.548E-06     392.960E-06
             966            1436     388.548E-06     392.960E-06
             965            1436     388.548E-06     392.960E-06
             968            1436     388.548E-06     392.960E-06
             968            1437     428.940E-06     433.213E-06
             967            1437     428.940E-06     433.213E-06
             971            1437     428.940E-06     433.213E-06
             970            1437     428.940E-06     433.213E-06
             969            1438     350.743E-06     354.330E-06
             972            1438     350.743E-06     354.330E-06
             968            1438     350.743E-06     354.330E-06
             971            1438     350.743E-06     354.330E-06
             971            1439     422.877E-06     423.752E-06
             970            1439     422.877E-06     423.752E-06
             973            1439     422.877E-06     423.752E-06
             974            1439     422.877E-06     423.752E-06
             972            1440     339.523E-06     344.397E-06
             975            1440     339.523E-06     344.397E-06
             971            1440     339.523E-06     344.397E-06
             974            1440     339.523E-06     344.397E-06
             974            1441     408.935E-06     408.090E-06
             977            1441     408.935E-06     408.090E-06
             976            1441     408.935E-06     408.090E-06
             973            1441     408.935E-06     408.090E-06
             975            1442     344.431E-06     347.717E-06
             978            1442     344.431E-06     347.717E-06
             977            1442     344.431E-06     347.717E-06
             974            1442     344.431E-06     347.717E-06
             979            1443     148.986E-03     141.665E-03
             980            1443     148.986E-03     141.665E-03
             982            1443     148.986E-03     141.665E-03
             983            1443     148.986E-03     141.665E-03
             983            1444     250.147E-03     239.254E-03
             980            1444     250.147E-03     239.254E-03
             984            1444     250.147E-03     239.254E-03
             981            1444     250.147E-03     239.254E-03
             983            1445     171.417E-03     167.242E-03
             986            1445     171.417E-03     167.242E-03
             982            1445     171.417E-03     167.242E-03
             985            1445     171.417E-03     167.242E-03
             984            1446     270.230E-03     264.875E-03
             987            1446     270.230E-03     264.875E-03
             983            1446     270.230E-03     264.875E-03
             986            1446     270.230E-03     264.875E-03
             985            1447     171.482E-03     182.613E-03
             986            1447     171.482E-03     182.613E-03
             988            1447     171.482E-03     182.613E-03
             989            1447     171.482E-03     182.613E-03
             990            1448     293.283E-03     306.580E-03
             986            1448     293.283E-03     306.580E-03
             987            1448     293.283E-03     306.580E-03
             989            1448     293.283E-03     306.580E-03
             988            1449     157.134E-03     165.099E-03
             992            1449     157.134E-03     165.099E-03
             991            1449     157.134E-03     165.099E-03
             989            1449     157.134E-03     165.099E-03
             992            1450     299.069E-03     300.364E-03
             990            1450     299.069E-03     300.364E-03
             993            1450     299.069E-03     300.364E-03
             989            1450     299.069E-03     300.364E-03
            2032            2310     59.2792E-03     58.6019E-03
            2029            2310     59.2792E-03     58.6019E-03
            2028            2310     59.2792E-03     58.6019E-03
            2031            2310     59.2792E-03     58.6019E-03
            2030            2311     53.5209E-03     53.2253E-03
            2033            2311     53.5209E-03     53.2253E-03
            2029            2311     53.5209E-03     53.2253E-03
            2032            2311     53.5209E-03     53.2253E-03
            2031            2312     80.5471E-03     79.1541E-03
            2034            2312     80.5471E-03     79.1541E-03
            2035            2312     80.5471E-03     79.1541E-03
            2032            2312     80.5471E-03     79.1541E-03
            2032            2313     67.1608E-03     67.1792E-03
            2033            2313     67.1608E-03     67.1792E-03
            2036            2313     67.1608E-03     67.1792E-03
            2035            2313     67.1608E-03     67.1792E-03
            2038            2314     83.5505E-03     82.3128E-03
            2035            2314     83.5505E-03     82.3128E-03
            2037            2314     83.5505E-03     82.3128E-03
            2034            2314     83.5505E-03     82.3128E-03
            2038            2315     67.9966E-03     68.3819E-03
            2036            2315     67.9966E-03     68.3819E-03
            2035            2315     67.9966E-03     68.3819E-03
            2039            2315     67.9966E-03     68.3819E-03
            2041            2316     85.1889E-03     84.8347E-03
            2040            2316     85.1889E-03     84.8347E-03
            2037            2316     85.1889E-03     84.8347E-03
            2038            2316     85.1889E-03     84.8347E-03
            2039            2317     71.5539E-03     71.8108E-03
            2038            2317     71.5539E-03     71.8108E-03
            2041            2317     71.5539E-03     71.8108E-03
            2042            2317     71.5539E-03     71.8108E-03
            2043            2318     86.9593E-03     87.3572E-03
            2041            2318     86.9593E-03     87.3572E-03
            2040            2318     86.9593E-03     87.3572E-03
            2044            2318     86.9593E-03     87.3572E-03
            2041            2319     77.9766E-03     77.8399E-03
            2042            2319     77.9766E-03     77.8399E-03
            2044            2319     77.9766E-03     77.8399E-03
            2045            2319     77.9766E-03     77.8399E-03
            2047            2320     88.2047E-03     89.5734E-03
            2046            2320     88.2047E-03     89.5734E-03
            2044            2320     88.2047E-03     89.5734E-03
            2043            2320     88.2047E-03     89.5734E-03
            2048            2321     87.6680E-03     87.8294E-03
            2045            2321     87.6680E-03     87.8294E-03
            2044            2321     87.6680E-03     87.8294E-03
            2047            2321     87.6680E-03     87.8294E-03
            2047            2322     84.1536E-03     85.3217E-03
            2050            2322     84.1536E-03     85.3217E-03
            2049            2322     84.1536E-03     85.3217E-03
            2046            2322     84.1536E-03     85.3217E-03
            2048            2323     97.2856E-03     96.5469E-03
            2050            2323     97.2856E-03     96.5469E-03
            2051            2323     97.2856E-03     96.5469E-03
            2047            2323     97.2856E-03     96.5469E-03
            2050            2324     84.8872E-03     83.1096E-03
            2053            2324     84.8872E-03     83.1096E-03
            2049            2324     84.8872E-03     83.1096E-03
            2052            2324     84.8872E-03     83.1096E-03
            2050            2325     91.3224E-03     87.6712E-03
            2054            2325     91.3224E-03     87.6712E-03
            2051            2325     91.3224E-03     87.6712E-03
            2053            2325     91.3224E-03     87.6712E-03
            2052            2326     91.0789E-03     87.5951E-03
            2053            2326     91.0789E-03     87.5951E-03
            2056            2326     91.0789E-03     87.5951E-03
            2055            2326     91.0789E-03     87.5951E-03
            2054            2327     88.3516E-03     86.4887E-03
            2053            2327     88.3516E-03     86.4887E-03
            2056            2327     88.3516E-03     86.4887E-03
            2057            2327     88.3516E-03     86.4887E-03
            2058            2328     93.9854E-03     92.5018E-03
            2059            2328     93.9854E-03     92.5018E-03
            2055            2328     93.9854E-03     92.5018E-03
            2056            2328     93.9854E-03     92.5018E-03
            2057            2329     99.2646E-03     100.695E-03
            2060            2329     99.2646E-03     100.695E-03
            2059            2329     99.2646E-03     100.695E-03
            2056            2329     99.2646E-03     100.695E-03
            2061            2330     97.4491E-03     98.6319E-03
            2062            2330     97.4491E-03     98.6319E-03
            2058            2330     97.4491E-03     98.6319E-03
            2059            2330     97.4491E-03     98.6319E-03
            2063            2331     108.781E-03     109.679E-03
            2059            2331     108.781E-03     109.679E-03
            2062            2331     108.781E-03     109.679E-03
            2060            2331     108.781E-03     109.679E-03
            2062            2332     99.6701E-03     102.995E-03
            2061            2332     99.6701E-03     102.995E-03
            2065            2332     99.6701E-03     102.995E-03
            2064            2332     99.6701E-03     102.995E-03
            2062            2333     121.210E-03     122.594E-03
            2066            2333     121.210E-03     122.594E-03
            2063            2333     121.210E-03     122.594E-03
            2065            2333     121.210E-03     122.594E-03
            2065            2334     94.3879E-03     96.3698E-03
            2068            2334     94.3879E-03     96.3698E-03
            2064            2334     94.3879E-03     96.3698E-03
            2067            2334     94.3879E-03     96.3698E-03
            2069            2335     131.669E-03     130.043E-03
            2065            2335     131.669E-03     130.043E-03
            2066            2335     131.669E-03     130.043E-03
            2068            2335     131.669E-03     130.043E-03
            2068            2336     96.0371E-03     92.0018E-03
            2071            2336     96.0371E-03     92.0018E-03
            2067            2336     96.0371E-03     92.0018E-03
            2070            2336     96.0371E-03     92.0018E-03
            2072            2337     124.391E-03     115.814E-03
            2068            2337     124.391E-03     115.814E-03
            2069            2337     124.391E-03     115.814E-03
            2071            2337     124.391E-03     115.814E-03
            2074            2338     104.156E-03     97.9330E-03
            2073            2338     104.156E-03     97.9330E-03
            2070            2338     104.156E-03     97.9330E-03
            2071            2338     104.156E-03     97.9330E-03
            2071            2339     121.567E-03     117.090E-03
            2074            2339     121.567E-03     117.090E-03
            2075            2339     121.567E-03     117.090E-03
            2072            2339     121.567E-03     117.090E-03
            2074            2340     107.181E-03     104.511E-03
            2076            2340     107.181E-03     104.511E-03
            2077            2340     107.181E-03     104.511E-03
            2073            2340     107.181E-03     104.511E-03
            2078            2341     135.200E-03     137.183E-03
            2075            2341     135.200E-03     137.183E-03
            2077            2341     135.200E-03     137.183E-03
            2074            2341     135.200E-03     137.183E-03
            2080            2342     111.647E-03     111.866E-03
            2076            2342     111.647E-03     111.866E-03
            2077            2342     111.647E-03     111.866E-03
            2079            2342     111.647E-03     111.866E-03
            2077            2343     146.685E-03     147.764E-03
            2078            2343     146.685E-03     147.764E-03
            2081            2343     146.685E-03     147.764E-03
            2080            2343     146.685E-03     147.764E-03
            2082            2344     116.555E-03     119.465E-03
            2079            2344     116.555E-03     119.465E-03
            2080            2344     116.555E-03     119.465E-03
            2083            2344     116.555E-03     119.465E-03
            2084            2345     157.911E-03     158.315E-03
            2081            2345     157.911E-03     158.315E-03
            2083            2345     157.911E-03     158.315E-03
            2080            2345     157.911E-03     158.315E-03
            2086            2346     119.373E-03     125.182E-03
            2085            2346     119.373E-03     125.182E-03
            2082            2346     119.373E-03     125.182E-03
            2083            2346     119.373E-03     125.182E-03
            2087            2347     171.641E-03     173.622E-03
            2086            2347     171.641E-03     173.622E-03
            2083            2347     171.641E-03     173.622E-03
            2084            2347     171.641E-03     173.622E-03
            2089            2348     112.116E-03     114.324E-03
            2085            2348     112.116E-03     114.324E-03
            2086            2348     112.116E-03     114.324E-03
            2088            2348     112.116E-03     114.324E-03
            2086            2349     181.364E-03     177.958E-03
            2087            2349     181.364E-03     177.958E-03
            2090            2349     181.364E-03     177.958E-03
            2089            2349     181.364E-03     177.958E-03
            2092            2350     114.030E-03     107.062E-03
            2089            2350     114.030E-03     107.062E-03
            2091            2350     114.030E-03     107.062E-03
            2088            2350     114.030E-03     107.062E-03
            2092            2351     171.534E-03     157.369E-03
            2093            2351     171.534E-03     157.369E-03
            2090            2351     171.534E-03     157.369E-03
            2089            2351     171.534E-03     157.369E-03
            2092            2352     124.330E-03     115.757E-03
            2094            2352     124.330E-03     115.757E-03
            2095            2352     124.330E-03     115.757E-03
            2091            2352     124.330E-03     115.757E-03
            2095            2353     168.752E-03     161.935E-03
            2096            2353     168.752E-03     161.935E-03
            2093            2353     168.752E-03     161.935E-03
            2092            2353     168.752E-03     161.935E-03
            2094            2354     127.545E-03     124.781E-03
            2095            2354     127.545E-03     124.781E-03
            2098            2354     127.545E-03     124.781E-03
            2097            2354     127.545E-03     124.781E-03
            2095            2355     184.436E-03     187.435E-03
            2098            2355     184.436E-03     187.435E-03
            2099            2355     184.436E-03     187.435E-03
            2096            2355     184.436E-03     187.435E-03
            2098            2356     132.563E-03     133.432E-03
            2101            2356     132.563E-03     133.432E-03
            2100            2356     132.563E-03     133.432E-03
            2097            2356     132.563E-03     133.432E-03
            2099            2357     196.866E-03     198.432E-03
            2101            2357     196.866E-03     198.432E-03
            2098            2357     196.866E-03     198.432E-03
            2102            2357     196.866E-03     198.432E-03
            2100            2358     138.320E-03     142.727E-03
            2104            2358     138.320E-03     142.727E-03
            2103            2358     138.320E-03     142.727E-03
            2101            2358     138.320E-03     142.727E-03
            2102            2359     208.756E-03     209.585E-03
            2101            2359     208.756E-03     209.585E-03
            2105            2359     208.756E-03     209.585E-03
            2104            2359     208.756E-03     209.585E-03
            2107            2360     141.329E-03     149.327E-03
            2103            2360     141.329E-03     149.327E-03
            2104            2360     141.329E-03     149.327E-03
            2106            2360     141.329E-03     149.327E-03
            2107            2361     223.146E-03     226.211E-03
            2108            2361     223.146E-03     226.211E-03
            2105            2361     223.146E-03     226.211E-03
            2104            2361     223.146E-03     226.211E-03
            2109            2362     132.284E-03     134.287E-03
            2106            2362     132.284E-03     134.287E-03
            2107            2362     132.284E-03     134.287E-03
            2110            2362     132.284E-03     134.287E-03
            2111            2363     232.043E-03     226.862E-03
            2107            2363     232.043E-03     226.862E-03
            2110            2363     232.043E-03     226.862E-03
            2108            2363     232.043E-03     226.862E-03
            2109            2364     135.093E-03     125.551E-03
            2113            2364     135.093E-03     125.551E-03
            2110            2364     135.093E-03     125.551E-03
            2112            2364     135.093E-03     125.551E-03
            2111            2365     220.852E-03     202.055E-03
            2113            2365     220.852E-03     202.055E-03
            2110            2365     220.852E-03     202.055E-03
            2114            2365     220.852E-03     202.055E-03
            2112            2366     148.163E-03     138.767E-03
            2116            2366     148.163E-03     138.767E-03
            2113            2366     148.163E-03     138.767E-03
            2115            2366     148.163E-03     138.767E-03
            2117            2367     220.745E-03     212.816E-03
            2116            2367     220.745E-03     212.816E-03
            2114            2367     220.745E-03     212.816E-03
            2113            2367     220.745E-03     212.816E-03
            2115            2368     151.848E-03     151.309E-03
            2116            2368     151.848E-03     151.309E-03
            2119            2368     151.848E-03     151.309E-03
            2118            2368     151.848E-03     151.309E-03
            2117            2369     238.494E-03     243.701E-03
            2116            2369     238.494E-03     243.701E-03
            2119            2369     238.494E-03     243.701E-03
            2120            2369     238.494E-03     243.701E-03
            2118            2370     157.479E-03     163.729E-03
            2119            2370     157.479E-03     163.729E-03
            2121            2370     157.479E-03     163.729E-03
            2122            2370     157.479E-03     163.729E-03
            2119            2371     250.646E-03     254.515E-03
            2123            2371     250.646E-03     254.515E-03
            2122            2371     250.646E-03     254.515E-03
            2120            2371     250.646E-03     254.515E-03
            2124            2372     160.222E-03     169.967E-03
            2122            2372     160.222E-03     169.967E-03
            2121            2372     160.222E-03     169.967E-03
            2125            2372     160.222E-03     169.967E-03
            2125            2373     265.744E-03     271.120E-03
            2122            2373     265.744E-03     271.120E-03
            2123            2373     265.744E-03     271.120E-03
            2126            2373     265.744E-03     271.120E-03
            2125            2374     149.796E-03     151.546E-03
            2124            2374     149.796E-03     151.546E-03
            2127            2374     149.796E-03     151.546E-03
            2128            2374     149.796E-03     151.546E-03
            2128            2375     274.065E-03     268.031E-03
            2126            2375     274.065E-03     268.031E-03
            2125            2375     274.065E-03     268.031E-03
            2129            2375     274.065E-03     268.031E-03
            2134            2376     322.303E-03     321.951E-03
            2133            2376     322.303E-03     321.951E-03
            2130            2376     322.303E-03     321.951E-03
            2131            2376     322.303E-03     321.951E-03
            2132            2377     242.600E-03     242.500E-03
            2134            2377     242.600E-03     242.500E-03
            2131            2377     242.600E-03     242.500E-03
            2135            2377     242.600E-03     242.500E-03
            2137            2378     310.491E-03     308.480E-03
            2136            2378     310.491E-03     308.480E-03
            2133            2378     310.491E-03     308.480E-03
            2134            2378     310.491E-03     308.480E-03
            2134            2379     240.089E-03     241.054E-03
            2135            2379     240.089E-03     241.054E-03
            2138            2379     240.089E-03     241.054E-03
            2137            2379     240.089E-03     241.054E-03
            2136            2380     307.786E-03     310.995E-03
            2139            2380     307.786E-03     310.995E-03
            2140            2380     307.786E-03     310.995E-03
            2137            2380     307.786E-03     310.995E-03
            2137            2381     227.701E-03     230.405E-03
            2140            2381     227.701E-03     230.405E-03
            2141            2381     227.701E-03     230.405E-03
            2138            2381     227.701E-03     230.405E-03
            2140            2382     274.947E-03     275.262E-03
            2143            2382     274.947E-03     275.262E-03
            2142            2382     274.947E-03     275.262E-03
            2139            2382     274.947E-03     275.262E-03
            2143            2383     243.203E-03     243.218E-03
            2144            2383     243.203E-03     243.218E-03
            2141            2383     243.203E-03     243.218E-03
            2140            2383     243.203E-03     243.218E-03
            2225            2440     240.725E-03     237.974E-03
            2226            2440     240.725E-03     237.974E-03
            2228            2440     240.725E-03     237.974E-03
            2229            2440     240.725E-03     237.974E-03
            2230            2441     141.473E-03     139.021E-03
            2227            2441     141.473E-03     139.021E-03
            2226            2441     141.473E-03     139.021E-03
            2229            2441     141.473E-03     139.021E-03
            2232            2442     266.310E-03     268.200E-03
            2229            2442     266.310E-03     268.200E-03
            2231            2442     266.310E-03     268.200E-03
            2228            2442     266.310E-03     268.200E-03
            2232            2443     167.697E-03     170.579E-03
            2233            2443     167.697E-03     170.579E-03
            2230            2443     167.697E-03     170.579E-03
            2229            2443     167.697E-03     170.579E-03
            2234            2444     293.337E-03     306.047E-03
            2231            2444     293.337E-03     306.047E-03
            2235            2444     293.337E-03     306.047E-03
            2232            2444     293.337E-03     306.047E-03
            2233            2445     171.106E-03     182.653E-03
            2235            2445     171.106E-03     182.653E-03
            2236            2445     171.106E-03     182.653E-03
            2232            2445     171.106E-03     182.653E-03
            2234            2446     302.512E-03     296.826E-03
            2237            2446     302.512E-03     296.826E-03
            2238            2446     302.512E-03     296.826E-03
            2235            2446     302.512E-03     296.826E-03
            2235            2447     161.120E-03     161.009E-03
            2238            2447     161.120E-03     161.009E-03
            2239            2447     161.120E-03     161.009E-03
            2236            2447     161.120E-03     161.009E-03
            2244            2448     211.243E-03     213.238E-03
            2240            2448     211.243E-03     213.238E-03
            2243            2448     211.243E-03     213.238E-03
            2241            2448     211.243E-03     213.238E-03
            2242            2449     258.975E-03     262.001E-03
            2241            2449     258.975E-03     262.001E-03
            2244            2449     258.975E-03     262.001E-03
            2245            2449     258.975E-03     262.001E-03
            2243            2450     225.672E-03     224.904E-03
            2247            2450     225.672E-03     224.904E-03
            2246            2450     225.672E-03     224.904E-03
            2244            2450     225.672E-03     224.904E-03
            2247            2451     232.207E-03     231.468E-03
            2248            2451     232.207E-03     231.468E-03
            2245            2451     232.207E-03     231.468E-03
            2244            2451     232.207E-03     231.468E-03
            2250            2452     212.294E-03     211.364E-03
            2247            2452     212.294E-03     211.364E-03
            2249            2452     212.294E-03     211.364E-03
            2246            2452     212.294E-03     211.364E-03
            2250            2453     227.487E-03     221.376E-03
            2247            2453     227.487E-03     221.376E-03
            2251            2453     227.487E-03     221.376E-03
            2248            2453     227.487E-03     221.376E-03
            2252            2454     207.120E-03     210.237E-03
            2253            2454     207.120E-03     210.237E-03
            2249            2454     207.120E-03     210.237E-03
            2250            2454     207.120E-03     210.237E-03
            2250            2455     236.583E-03     235.391E-03
            2251            2455     236.583E-03     235.391E-03
            2254            2455     236.583E-03     235.391E-03
            2253            2455     236.583E-03     235.391E-03
            2255            2456     217.511E-03     220.918E-03
            2253            2456     217.511E-03     220.918E-03
            2256            2456     217.511E-03     220.918E-03
            2252            2456     217.511E-03     220.918E-03
            2253            2457     213.838E-03     214.484E-03
            2254            2457     213.838E-03     214.484E-03
            2256            2457     213.838E-03     214.484E-03
            2257            2457     213.838E-03     214.484E-03
            2258            2458     214.968E-03     216.293E-03
            2255            2458     214.968E-03     216.293E-03
            2259            2458     214.968E-03     216.293E-03
            2256            2458     214.968E-03     216.293E-03
            2259            2459     190.705E-03     190.972E-03
            2257            2459     190.705E-03     190.972E-03
            2260            2459     190.705E-03     190.972E-03
            2256            2459     190.705E-03     190.972E-03
            2261            2460     211.174E-03     210.621E-03
            2258            2460     211.174E-03     210.621E-03
            2259            2460     211.174E-03     210.621E-03
            2262            2460     211.174E-03     210.621E-03
            2263            2461     175.912E-03     177.010E-03
            2259            2461     175.912E-03     177.010E-03
            2260            2461     175.912E-03     177.010E-03
            2262            2461     175.912E-03     177.010E-03
            2264            2462     207.746E-03     204.585E-03
            2262            2462     207.746E-03     204.585E-03
            2261            2462     207.746E-03     204.585E-03
            2265            2462     207.746E-03     204.585E-03
            2263            2463     168.532E-03     169.649E-03
            2265            2463     168.532E-03     169.649E-03
            2262            2463     168.532E-03     169.649E-03
            2266            2463     168.532E-03     169.649E-03
            2264            2464     200.702E-03     197.012E-03
            2268            2464     200.702E-03     197.012E-03
            2265            2464     200.702E-03     197.012E-03
            2267            2464     200.702E-03     197.012E-03
            2265            2465     167.901E-03     167.678E-03
            2266            2465     167.901E-03     167.678E-03
            2268            2465     167.901E-03     167.678E-03
            2269            2465     167.901E-03     167.678E-03
            2271            2466     148.011E-03     146.257E-03
            2267            2466     148.011E-03     146.257E-03
            2270            2466     148.011E-03     146.257E-03
            2268            2466     148.011E-03     146.257E-03
            2269            2467     134.162E-03     133.241E-03
            2268            2467     134.162E-03     133.241E-03
            2271            2467     134.162E-03     133.241E-03
            2272            2467     134.162E-03     133.241E-03
            2750            2844     432.831E-06     432.878E-06
            2747            2844     432.831E-06     432.878E-06
            2749            2844     432.831E-06     432.878E-06
            2746            2844     432.831E-06     432.878E-06
            2751            2845     414.350E-06     421.589E-06
            2748            2845     414.350E-06     421.589E-06
            2747            2845     414.350E-06     421.589E-06
            2750            2845     414.350E-06     421.589E-06
            2749            2846     388.060E-06     392.480E-06
            2750            2846     388.060E-06     392.480E-06
            2752            2846     388.060E-06     392.480E-06
            2753            2846     388.060E-06     392.480E-06
            2750            2847     431.693E-06     439.923E-06
            2753            2847     431.693E-06     439.923E-06
            2754            2847     431.693E-06     439.923E-06
            2751            2847     431.693E-06     439.923E-06
            2753            2848     350.566E-06     354.156E-06
            2755            2848     350.566E-06     354.156E-06
            2752            2848     350.566E-06     354.156E-06
            2756            2848     350.566E-06     354.156E-06
            2754            2849     428.842E-06     433.115E-06
            2757            2849     428.842E-06     433.115E-06
            2753            2849     428.842E-06     433.115E-06
            2756            2849     428.842E-06     433.115E-06
            2756            2850     339.556E-06     344.409E-06
            2759            2850     339.556E-06     344.409E-06
            2758            2850     339.556E-06     344.409E-06
            2755            2850     339.556E-06     344.409E-06
            2757            2851     422.830E-06     423.735E-06
            2759            2851     422.830E-06     423.735E-06
            2756            2851     422.830E-06     423.735E-06
            2760            2851     422.830E-06     423.735E-06
            2759            2852     344.493E-06     347.769E-06
            2762            2852     344.493E-06     347.769E-06
            2761            2852     344.493E-06     347.769E-06
            2758            2852     344.493E-06     347.769E-06
            2759            2853     408.931E-06     408.132E-06
            2760            2853     408.931E-06     408.132E-06
            2762            2853     408.931E-06     408.132E-06
            2763            2853     408.931E-06     408.132E-06
            2823            2894     414.350E-06     421.589E-06
            2820            2894     414.350E-06     421.589E-06
            2819            2894     414.350E-06     421.589E-06
            2822            2894     414.350E-06     421.589E-06
            2823            2895     432.831E-06     432.878E-06
            2821            2895     432.831E-06     432.878E-06
            2820            2895     432.831E-06     432.878E-06
            2824            2895     432.831E-06     432.878E-06
            2826            2896     431.693E-06     439.923E-06
            2823            2896     431.693E-06     439.923E-06
            2825            2896     431.693E-06     439.923E-06
            2822            2896     431.693E-06     439.923E-06
            2826            2897     388.060E-06     392.480E-06
            2824            2897     388.060E-06     392.480E-06
            2823            2897     388.060E-06     392.480E-06
            2827            2897     388.060E-06     392.480E-06
            2825            2898     428.842E-06     433.115E-06
            2828            2898     428.842E-06     433.115E-06
            2826            2898     428.842E-06     433.115E-06
            2829            2898     428.842E-06     433.115E-06
            2826            2899     350.566E-06     354.156E-06
            2829            2899     350.566E-06     354.156E-06
            2830            2899     350.566E-06     354.156E-06
            2827            2899     350.566E-06     354.156E-06
            2832            2900     422.830E-06     423.735E-06
            2831            2900     422.830E-06     423.735E-06
            2829            2900     422.830E-06     423.735E-06
            2828            2900     422.830E-06     423.735E-06
            2832            2901     339.556E-06     344.409E-06
            2833            2901     339.556E-06     344.409E-06
            2829            2901     339.556E-06     344.409E-06
            2830            2901     339.556E-06     344.409E-06
            2834            2902     408.931E-06     408.132E-06
            2835            2902     408.931E-06     408.132E-06
            2832            2902     408.931E-06     408.132E-06
            2831            2902     408.931E-06     408.132E-06
            2836            2903     344.493E-06     347.769E-06
            2835            2903     344.493E-06     347.769E-06
            2832            2903     344.493E-06     347.769E-06
            2833            2903     344.493E-06     347.769E-06
            2837            2904     238.636E-03     238.765E-03
            2840            2904     238.636E-03     238.765E-03
            2838            2904     238.636E-03     238.765E-03
            2841            2904     238.636E-03     238.765E-03
            2842            2905     316.171E-03     315.946E-03
            2841            2905     316.171E-03     315.946E-03
            2838            2905     316.171E-03     315.946E-03
            2839            2905     316.171E-03     315.946E-03
            2844            2906     236.776E-03     237.634E-03
            2840            2906     236.776E-03     237.634E-03
            2843            2906     236.776E-03     237.634E-03
            2841            2906     236.776E-03     237.634E-03
            2844            2907     304.991E-03     302.743E-03
            2845            2907     304.991E-03     302.743E-03
            2841            2907     304.991E-03     302.743E-03
            2842            2907     304.991E-03     302.743E-03
            2844            2908     224.193E-03     227.493E-03
            2846            2908     224.193E-03     227.493E-03
            2843            2908     224.193E-03     227.493E-03
            2847            2908     224.193E-03     227.493E-03
            2844            2909     301.877E-03     306.109E-03
            2845            2909     301.877E-03     306.109E-03
            2847            2909     301.877E-03     306.109E-03
            2848            2909     301.877E-03     306.109E-03
            2846            2910     240.865E-03     240.307E-03
            2847            2910     240.865E-03     240.307E-03
            2849            2910     240.865E-03     240.307E-03
            2850            2910     240.865E-03     240.307E-03
            2847            2911     270.780E-03     270.237E-03
            2848            2911     270.780E-03     270.237E-03
            2851            2911     270.780E-03     270.237E-03
            2850            2911     270.780E-03     270.237E-03
            2882            2932     262.940E-03     265.125E-03
            2886            2932     262.940E-03     265.125E-03
            2885            2932     262.940E-03     265.125E-03
            2883            2932     262.940E-03     265.125E-03
            2883            2933     213.354E-03     214.924E-03
            2884            2933     213.354E-03     214.924E-03
            2886            2933     213.354E-03     214.924E-03
            2887            2933     213.354E-03     214.924E-03
            2885            2934     234.687E-03     234.632E-03
            2888            2934     234.687E-03     234.632E-03
            2889            2934     234.687E-03     234.632E-03
            2886            2934     234.687E-03     234.632E-03
            2887            2935     226.970E-03     226.647E-03
            2886            2935     226.970E-03     226.647E-03
            2889            2935     226.970E-03     226.647E-03
            2890            2935     226.970E-03     226.647E-03
            2889            2936     229.439E-03     223.526E-03
            2888            2936     229.439E-03     223.526E-03
            2892            2936     229.439E-03     223.526E-03
            2891            2936     229.439E-03     223.526E-03
            2892            2937     213.250E-03     212.518E-03
            2893            2937     213.250E-03     212.518E-03
            2890            2937     213.250E-03     212.518E-03
            2889            2937     213.250E-03     212.518E-03
            2891            2938     238.543E-03     236.935E-03
            2892            2938     238.543E-03     236.935E-03
            2894            2938     238.543E-03     236.935E-03
            2895            2938     238.543E-03     236.935E-03
            2893            2939     208.046E-03     210.968E-03
            2895            2939     208.046E-03     210.968E-03
            2896            2939     208.046E-03     210.968E-03
            2892            2939     208.046E-03     210.968E-03
            2894            2940     215.420E-03     215.897E-03
            2897            2940     215.420E-03     215.897E-03
            2895            2940     215.420E-03     215.897E-03
            2898            2940     215.420E-03     215.897E-03
            2896            2941     218.276E-03     221.617E-03
            2898            2941     218.276E-03     221.617E-03
            2895            2941     218.276E-03     221.617E-03
            2899            2941     218.276E-03     221.617E-03
            2901            2942     192.019E-03     191.910E-03
            2900            2942     192.019E-03     191.910E-03
            2898            2942     192.019E-03     191.910E-03
            2897            2942     192.019E-03     191.910E-03
            2899            2943     215.637E-03     216.719E-03
            2901            2943     215.637E-03     216.719E-03
            2898            2943     215.637E-03     216.719E-03
            2902            2943     215.637E-03     216.719E-03
            2903            2944     176.804E-03     177.596E-03
            2901            2944     176.804E-03     177.596E-03
            2904            2944     176.804E-03     177.596E-03
            2900            2944     176.804E-03     177.596E-03
            2904            2945     211.610E-03     210.826E-03
            2902            2945     211.610E-03     210.826E-03
            2905            2945     211.610E-03     210.826E-03
            2901            2945     211.610E-03     210.826E-03
            2903            2946     168.844E-03     169.827E-03
            2906            2946     168.844E-03     169.827E-03
            2904            2946     168.844E-03     169.827E-03
            2907            2946     168.844E-03     169.827E-03
            2907            2947     207.810E-03     204.734E-03
            2905            2947     207.810E-03     204.734E-03
            2908            2947     207.810E-03     204.734E-03
            2904            2947     207.810E-03     204.734E-03
            2907            2948     167.441E-03     167.372E-03
            2910            2948     167.441E-03     167.372E-03
            2909            2948     167.441E-03     167.372E-03
            2906            2948     167.441E-03     167.372E-03
            2908            2949     200.507E-03     197.035E-03
            2910            2949     200.507E-03     197.035E-03
            2907            2949     200.507E-03     197.035E-03
            2911            2949     200.507E-03     197.035E-03
            2910            2950     133.750E-03     132.953E-03
            2909            2950     133.750E-03     132.953E-03
            2912            2950     133.750E-03     132.953E-03
            2913            2950     133.750E-03     132.953E-03
            2911            2951     147.890E-03     146.213E-03
            2914            2951     147.890E-03     146.213E-03
            2910            2951     147.890E-03     146.213E-03
            2913            2951     147.890E-03     146.213E-03


  Minimum                            275.252E-06     283.016E-06
      At Element                            2833            2833
            Node                             565             565

  Maximum                            402.569E-03     384.961E-03
      At Element                            2237            2839
            Node                              20              16

           Total                         217.611         216.458


Field Output reported at element nodes for region: CRJ700-1.Region_3
   Computation algorithm: EXTRAPOLATE_COMPUTE_AVERAGE
   Averaged at nodes
   Averaging regions: ODB_REGIONS

   Element Label      Node Label         S.Mises         S.Mises
                                          @Loc 1          @Loc 2
-----------------------------------------------------------------
               1               1     747.687E-06     670.003E-06
            2288               1     747.687E-06     670.003E-06
            2273               2     2.85063E-03     2.90440E-03
              16               2     2.85063E-03     2.90440E-03
            1009               3     355.064E-03     368.396E-03
             544               3     355.064E-03     368.396E-03
             529               4     18.2707E-03     17.9128E-03
             994               4     18.2707E-03     17.9128E-03
            2368               7     155.127E-06     191.663E-06
            2353               9     47.6443E-06     102.842E-06
            1768              16     396.941E-03     426.908E-03
            1073              16     396.941E-03     426.908E-03
            1058              18     29.7249E-03     57.0030E-03
            1753              18     29.7249E-03     57.0030E-03
            1832              21     264.798E-03     277.354E-03
            3026              21     264.798E-03     277.354E-03
            3011              22     40.3011E-03     45.5127E-03
            1817              22     40.3011E-03     45.5127E-03
            2560              28     7.20006E-03     7.44638E-03
            3186              28     7.20006E-03     7.44638E-03
            2545              30     3.79538E-03     4.05020E-03
            3171              30     3.79538E-03     4.05020E-03
            2640              31     47.4694E-06     102.847E-06
            2625              32     154.843E-06     191.321E-06
               2              36     754.622E-06     678.996E-06
            2288              36     754.622E-06     678.996E-06
            2287              36     754.622E-06     678.996E-06
               1              36     754.622E-06     678.996E-06
               3              37     787.459E-06     722.454E-06
            2287              37     787.459E-06     722.454E-06
               2              37     787.459E-06     722.454E-06
            2286              37     787.459E-06     722.454E-06
            2285              38     856.019E-06     809.450E-06
               4              38     856.019E-06     809.450E-06
               3              38     856.019E-06     809.450E-06
            2286              38     856.019E-06     809.450E-06
            2285              39     955.173E-06     925.977E-06
               4              39     955.173E-06     925.977E-06
            2284              39     955.173E-06     925.977E-06
               5              39     955.173E-06     925.977E-06
            2284              40     1.07632E-03     1.06140E-03
            2283              40     1.07632E-03     1.06140E-03
               6              40     1.07632E-03     1.06140E-03
               5              40     1.07632E-03     1.06140E-03
            2282              41     1.21260E-03     1.20925E-03
               7              41     1.21260E-03     1.20925E-03
               6              41     1.21260E-03     1.20925E-03
            2283              41     1.21260E-03     1.20925E-03
            2281              42     1.35956E-03     1.36506E-03
            2282              42     1.35956E-03     1.36506E-03
               8              42     1.35956E-03     1.36506E-03
               7              42     1.35956E-03     1.36506E-03
            2281              43     1.51401E-03     1.52657E-03
               8              43     1.51401E-03     1.52657E-03
               9              43     1.51401E-03     1.52657E-03
            2280              43     1.51401E-03     1.52657E-03
              10              44     1.67358E-03     1.69180E-03
               9              44     1.67358E-03     1.69180E-03
            2280              44     1.67358E-03     1.69180E-03
            2279              44     1.67358E-03     1.69180E-03
            2278              45     1.83719E-03     1.85985E-03
            2279              45     1.83719E-03     1.85985E-03
              11              45     1.83719E-03     1.85985E-03
              10              45     1.83719E-03     1.85985E-03
              11              46     2.00295E-03     2.02961E-03
            2277              46     2.00295E-03     2.02961E-03
              12              46     2.00295E-03     2.02961E-03
            2278              46     2.00295E-03     2.02961E-03
              12              47     2.17129E-03     2.20107E-03
              13              47     2.17129E-03     2.20107E-03
            2277              47     2.17129E-03     2.20107E-03
            2276              47     2.17129E-03     2.20107E-03
            2276              48     2.34251E-03     2.37557E-03
              14              48     2.34251E-03     2.37557E-03
            2275              48     2.34251E-03     2.37557E-03
              13              48     2.34251E-03     2.37557E-03
              15              49     2.52142E-03     2.55853E-03
            2275              49     2.52142E-03     2.55853E-03
            2274              49     2.52142E-03     2.55853E-03
              14              49     2.52142E-03     2.55853E-03
            2273              50     2.73275E-03     2.77902E-03
              16              50     2.73275E-03     2.77902E-03
              15              50     2.73275E-03     2.77902E-03
            2274              50     2.73275E-03     2.77902E-03
              32              51     9.41880E-03     11.8875E-03
              16              51     9.41880E-03     11.8875E-03
              48              52     18.9078E-03     21.5692E-03
              32              52     18.9078E-03     21.5692E-03
              48              53     31.8921E-03     31.4710E-03
              64              53     31.8921E-03     31.4710E-03
              80              54     46.4279E-03     45.3602E-03
              64              54     46.4279E-03     45.3602E-03
              80              55     59.0814E-03     60.8627E-03
              96              55     59.0814E-03     60.8627E-03
              96              56     74.6696E-03     73.9456E-03
             112              56     74.6696E-03     73.9456E-03
             128              57     88.0006E-03     91.6761E-03
             112              57     88.0006E-03     91.6761E-03
             128              58     83.7097E-03     86.3756E-03
             144              58     83.7097E-03     86.3756E-03
             144              59     84.0817E-03     81.3970E-03
             160              59     84.0817E-03     81.3970E-03
             160              60     103.157E-03     103.695E-03
             176              60     103.157E-03     103.695E-03
             192              61     119.437E-03     122.382E-03
             176              61     119.437E-03     122.382E-03
             208              62     135.916E-03     136.015E-03
             192              62     135.916E-03     136.015E-03
             224              63     149.506E-03     153.303E-03
             208              63     149.506E-03     153.303E-03
             224              64     144.612E-03     148.667E-03
             240              64     144.612E-03     148.667E-03
             256              65     147.609E-03     143.926E-03
             240              65     147.609E-03     143.926E-03
             272              66     166.329E-03     168.491E-03
             256              66     166.329E-03     168.491E-03
             272              67     184.486E-03     186.020E-03
             288              67     184.486E-03     186.020E-03
             288              68     198.415E-03     202.884E-03
             304              68     198.415E-03     202.884E-03
             320              69     214.316E-03     215.111E-03
             304              69     214.316E-03     215.111E-03
             320              70     226.424E-03     230.177E-03
             336              70     226.424E-03     230.177E-03
             336              71     218.620E-03     224.569E-03
             352              71     218.620E-03     224.569E-03
             368              72     222.603E-03     218.839E-03
             352              72     222.603E-03     218.839E-03
             368              73     242.671E-03     245.583E-03
             384              73     242.671E-03     245.583E-03
             384              74     261.480E-03     264.313E-03
             400              74     261.480E-03     264.313E-03
             416              75     275.591E-03     281.386E-03
             400              75     275.591E-03     281.386E-03
             432              76     291.276E-03     292.781E-03
             416              76     291.276E-03     292.781E-03
             448              77     302.384E-03     306.167E-03
             432              77     302.384E-03     306.167E-03
             464              78     292.833E-03     300.671E-03
             448              78     292.833E-03     300.671E-03
             464              79     297.402E-03     295.394E-03
             480              79     297.402E-03     295.394E-03
             480              80     321.338E-03     323.114E-03
             496              80     321.338E-03     323.114E-03
             496              81     338.063E-03     346.973E-03
             512              81     338.063E-03     346.973E-03
             528              82     355.400E-03     356.659E-03
             512              82     355.400E-03     356.659E-03
             528              83     365.258E-03     370.043E-03
             544              83     365.258E-03     370.043E-03
            1009              84     334.252E-03     345.255E-03
             543              84     334.252E-03     345.255E-03
            1008              84     334.252E-03     345.255E-03
             544              84     334.252E-03     345.255E-03
             542              85     301.327E-03     309.255E-03
            1007              85     301.327E-03     309.255E-03
            1008              85     301.327E-03     309.255E-03
             543              85     301.327E-03     309.255E-03
            1007              86     276.718E-03     284.818E-03
             542              86     276.718E-03     284.818E-03
            1006              86     276.718E-03     284.818E-03
             541              86     276.718E-03     284.818E-03
            1005              87     253.226E-03     262.081E-03
            1006              87     253.226E-03     262.081E-03
             540              87     253.226E-03     262.081E-03
             541              87     253.226E-03     262.081E-03
            1005              88     230.791E-03     239.983E-03
            1004              88     230.791E-03     239.983E-03
             539              88     230.791E-03     239.983E-03
             540              88     230.791E-03     239.983E-03
             538              89     208.362E-03     217.873E-03
            1004              89     208.362E-03     217.873E-03
             539              89     208.362E-03     217.873E-03
            1003              89     208.362E-03     217.873E-03
            1002              90     186.049E-03     195.609E-03
             538              90     186.049E-03     195.609E-03
             537              90     186.049E-03     195.609E-03
            1003              90     186.049E-03     195.609E-03
             536              91     163.591E-03     173.243E-03
            1002              91     163.591E-03     173.243E-03
             537              91     163.591E-03     173.243E-03
            1001              91     163.591E-03     173.243E-03
            1000              92     141.121E-03     150.768E-03
            1001              92     141.121E-03     150.768E-03
             535              92     141.121E-03     150.768E-03
             536              92     141.121E-03     150.768E-03
            1000              93     118.574E-03     128.274E-03
             999              93     118.574E-03     128.274E-03
             534              93     118.574E-03     128.274E-03
             535              93     118.574E-03     128.274E-03
             998              94     96.0951E-03     105.775E-03
             534              94     96.0951E-03     105.775E-03
             533              94     96.0951E-03     105.775E-03
             999              94     96.0951E-03     105.775E-03
             532              95     73.7632E-03     83.3080E-03
             997              95     73.7632E-03     83.3080E-03
             533              95     73.7632E-03     83.3080E-03
             998              95     73.7632E-03     83.3080E-03
             997              96     51.8067E-03     60.9138E-03
             996              96     51.8067E-03     60.9138E-03
             531              96     51.8067E-03     60.9138E-03
             532              96     51.8067E-03     60.9138E-03
             530              97     31.0949E-03     38.9492E-03
             531              97     31.0949E-03     38.9492E-03
             995              97     31.0949E-03     38.9492E-03
             996              97     31.0949E-03     38.9492E-03
             530              98     19.7727E-03     23.0152E-03
             994              98     19.7727E-03     23.0152E-03
             529              98     19.7727E-03     23.0152E-03
             995              98     19.7727E-03     23.0152E-03
             513              99     14.3867E-03     8.30626E-03
             529              99     14.3867E-03     8.30626E-03
             513             100     18.0716E-03     10.3940E-03
             497             100     18.0716E-03     10.3940E-03
             481             101     25.3440E-03     19.9040E-03
             497             101     25.3440E-03     19.9040E-03
             481             102     37.0521E-03     34.4596E-03
             465             102     37.0521E-03     34.4596E-03
             465             103     42.6508E-03     51.5238E-03
             449             103     42.6508E-03     51.5238E-03
             449             104     26.4291E-03     33.6153E-03
             433             104     26.4291E-03     33.6153E-03
             433             105     12.8743E-03     7.27988E-03
             417             105     12.8743E-03     7.27988E-03
             417             106     15.5554E-03     7.23725E-03
             401             106     15.5554E-03     7.23725E-03
             401             107     20.8680E-03     16.2662E-03
             385             107     20.8680E-03     16.2662E-03
             385             108     28.7751E-03     25.0677E-03
             369             108     28.7751E-03     25.0677E-03
             353             109     38.0505E-03     36.9200E-03
             369             109     38.0505E-03     36.9200E-03
             337             110     42.1248E-03     50.4218E-03
             353             110     42.1248E-03     50.4218E-03
             337             111     26.3292E-03     30.6320E-03
             321             111     26.3292E-03     30.6320E-03
             321             112     12.7658E-03     7.05355E-03
             305             112     12.7658E-03     7.05355E-03
             289             113     15.7758E-03     10.2093E-03
             305             113     15.7758E-03     10.2093E-03
             289             114     20.7483E-03     17.1272E-03
             273             114     20.7483E-03     17.1272E-03
             257             115     26.4938E-03     23.3928E-03
             273             115     26.4938E-03     23.3928E-03
             257             116     33.2155E-03     32.0670E-03
             241             116     33.2155E-03     32.0670E-03
             241             117     35.8790E-03     42.2999E-03
             225             117     35.8790E-03     42.2999E-03
             225             118     24.9017E-03     28.7617E-03
             209             118     24.9017E-03     28.7617E-03
             209             119     15.7771E-03     12.2231E-03
             193             119     15.7771E-03     12.2231E-03
             177             120     18.4404E-03     15.1790E-03
             193             120     18.4404E-03     15.1790E-03
             161             121     22.2103E-03     18.8137E-03
             177             121     22.2103E-03     18.8137E-03
             145             122     26.4592E-03     24.6226E-03
             161             122     26.4592E-03     24.6226E-03
             145             123     28.0278E-03     31.7755E-03
             129             123     28.0278E-03     31.7755E-03
             113             124     22.6387E-03     25.7681E-03
             129             124     22.6387E-03     25.7681E-03
              97             125     18.3550E-03     17.9169E-03
             113             125     18.3550E-03     17.9169E-03
              97             126     19.8245E-03     17.5172E-03
              81             126     19.8245E-03     17.5172E-03
              65             127     21.3155E-03     18.7438E-03
              81             127     21.3155E-03     18.7438E-03
              49             128     22.8180E-03     20.3503E-03
              65             128     22.8180E-03     20.3503E-03
              49             129     24.6559E-03     23.1661E-03
              33             129     24.6559E-03     23.1661E-03
              17             130     24.8127E-03     27.4673E-03
              33             130     24.8127E-03     27.4673E-03
              17             131     12.8392E-03     14.8223E-03
               1             131     12.8392E-03     14.8223E-03
            2352             167     167.689E-06     183.189E-06
            2368             167     167.689E-06     183.189E-06
            2336             168     176.728E-06     161.853E-06
            2352             168     176.728E-06     161.853E-06
            2320             169     169.767E-06     147.862E-06
            2336             169     169.767E-06     147.862E-06
            2304             170     164.432E-06     148.228E-06
            2320             170     164.432E-06     148.228E-06
            2304             171     145.013E-06     154.999E-06
            2288             171     145.013E-06     154.999E-06
            2289             176     330.714E-06     347.722E-06
            2273             176     330.714E-06     347.722E-06
            2305             177     250.592E-06     248.871E-06
            2289             177     250.592E-06     248.871E-06
            2321             178     166.192E-06     168.438E-06
            2305             178     166.192E-06     168.438E-06
            2337             179     90.7798E-06     85.0228E-06
            2321             179     90.7798E-06     85.0228E-06
            2337             180     45.3393E-06     77.0169E-06
            2353             180     45.3393E-06     77.0169E-06
            1025             314     351.501E-03     353.346E-03
            1009             314     351.501E-03     353.346E-03
            1025             315     369.975E-03     372.115E-03
            1041             315     369.975E-03     372.115E-03
            1057             316     397.353E-03     398.564E-03
            1041             316     397.353E-03     398.564E-03
            1073             317     409.652E-03     418.509E-03
            1057             317     409.652E-03     418.509E-03
            1768             324     366.516E-03     396.577E-03
            1073             324     366.516E-03     396.577E-03
            1767             324     366.516E-03     396.577E-03
            1072             324     366.516E-03     396.577E-03
            1072             325     327.487E-03     355.505E-03
            1071             325     327.487E-03     355.505E-03
            1766             325     327.487E-03     355.505E-03
            1767             325     327.487E-03     355.505E-03
            1766             326     304.928E-03     333.610E-03
            1071             326     304.928E-03     333.610E-03
            1070             326     304.928E-03     333.610E-03
            1765             326     304.928E-03     333.610E-03
            1070             327     280.153E-03     310.336E-03
            1764             327     280.153E-03     310.336E-03
            1765             327     280.153E-03     310.336E-03
            1069             327     280.153E-03     310.336E-03
            1069             328     256.651E-03     287.105E-03
            1764             328     256.651E-03     287.105E-03
            1068             328     256.651E-03     287.105E-03
            1763             328     256.651E-03     287.105E-03
            1068             329     232.368E-03     263.859E-03
            1067             329     232.368E-03     263.859E-03
            1762             329     232.368E-03     263.859E-03
            1763             329     232.368E-03     263.859E-03
            1067             330     208.346E-03     240.159E-03
            1762             330     208.346E-03     240.159E-03
            1761             330     208.346E-03     240.159E-03
            1066             330     208.346E-03     240.159E-03
            1066             331     183.953E-03     216.550E-03
            1760             331     183.953E-03     216.550E-03
            1065             331     183.953E-03     216.550E-03
            1761             331     183.953E-03     216.550E-03
            1760             332     159.712E-03     192.764E-03
            1759             332     159.712E-03     192.764E-03
            1064             332     159.712E-03     192.764E-03
            1065             332     159.712E-03     192.764E-03
            1064             333     135.338E-03     169.015E-03
            1063             333     135.338E-03     169.015E-03
            1758             333     135.338E-03     169.015E-03
            1759             333     135.338E-03     169.015E-03
            1757             334     111.116E-03     145.277E-03
            1758             334     111.116E-03     145.277E-03
            1062             334     111.116E-03     145.277E-03
            1063             334     111.116E-03     145.277E-03
            1757             335     86.8872E-03     121.590E-03
            1756             335     86.8872E-03     121.590E-03
            1061             335     86.8872E-03     121.590E-03
            1062             335     86.8872E-03     121.590E-03
            1755             336     63.6627E-03     98.2785E-03
            1756             336     63.6627E-03     98.2785E-03
            1061             336     63.6627E-03     98.2785E-03
            1060             336     63.6627E-03     98.2785E-03
            1060             337     42.4021E-03     75.7491E-03
            1755             337     42.4021E-03     75.7491E-03
            1059             337     42.4021E-03     75.7491E-03
            1754             337     42.4021E-03     75.7491E-03
            1753             338     30.9907E-03     60.7870E-03
            1059             338     30.9907E-03     60.7870E-03
            1754             338     30.9907E-03     60.7870E-03
            1058             338     30.9907E-03     60.7870E-03
            1042             339     37.0848E-03     47.8970E-03
            1058             339     37.0848E-03     47.8970E-03
            1042             340     54.1408E-03     47.2253E-03
            1026             340     54.1408E-03     47.2253E-03
            1026             341     55.2364E-03     68.1218E-03
            1010             341     55.2364E-03     68.1218E-03
             994             342     36.3192E-03     50.0178E-03
            1010             342     36.3192E-03     50.0178E-03
            1768             393     367.101E-03     372.812E-03
            1784             393     367.101E-03     372.812E-03
            1800             394     349.664E-03     354.661E-03
            1784             394     349.664E-03     354.661E-03
            1816             395     335.778E-03     348.989E-03
            1800             395     335.778E-03     348.989E-03
            1832             396     291.057E-03     280.086E-03
            1816             396     291.057E-03     280.086E-03
            1832             397     256.458E-03     266.025E-03
            3026             397     256.458E-03     266.025E-03
            1831             397     256.458E-03     266.025E-03
            3025             397     256.458E-03     266.025E-03
            3024             398     243.474E-03     249.365E-03
            1830             398     243.474E-03     249.365E-03
            1831             398     243.474E-03     249.365E-03
            3025             398     243.474E-03     249.365E-03
            3023             399     229.938E-03     235.544E-03
            1830             399     229.938E-03     235.544E-03
            3024             399     229.938E-03     235.544E-03
            1829             399     229.938E-03     235.544E-03
            3022             400     213.142E-03     219.289E-03
            3023             400     213.142E-03     219.289E-03
            1828             400     213.142E-03     219.289E-03
            1829             400     213.142E-03     219.289E-03
            3021             401     196.859E-03     203.045E-03
            1828             401     196.859E-03     203.045E-03
            3022             401     196.859E-03     203.045E-03
            1827             401     196.859E-03     203.045E-03
            3021             402     180.226E-03     186.387E-03
            1826             402     180.226E-03     186.387E-03
            3020             402     180.226E-03     186.387E-03
            1827             402     180.226E-03     186.387E-03
            3019             403     163.662E-03     169.826E-03
            3020             403     163.662E-03     169.826E-03
            1825             403     163.662E-03     169.826E-03
            1826             403     163.662E-03     169.826E-03
            1825             404     147.064E-03     153.222E-03
            3018             404     147.064E-03     153.222E-03
            3019             404     147.064E-03     153.222E-03
            1824             404     147.064E-03     153.222E-03
            1824             405     130.601E-03     136.764E-03
            3018             405     130.601E-03     136.764E-03
            3017             405     130.601E-03     136.764E-03
            1823             405     130.601E-03     136.764E-03
            1823             406     114.314E-03     120.467E-03
            1822             406     114.314E-03     120.467E-03
            3016             406     114.314E-03     120.467E-03
            3017             406     114.314E-03     120.467E-03
            3015             407     98.3585E-03     104.482E-03
            1822             407     98.3585E-03     104.482E-03
            1821             407     98.3585E-03     104.482E-03
            3016             407     98.3585E-03     104.482E-03
            3015             408     82.8877E-03     88.9591E-03
            3014             408     82.8877E-03     88.9591E-03
            1821             408     82.8877E-03     88.9591E-03
            1820             408     82.8877E-03     88.9591E-03
            1820             409     68.2470E-03     74.4126E-03
            3013             409     68.2470E-03     74.4126E-03
            3014             409     68.2470E-03     74.4126E-03
            1819             409     68.2470E-03     74.4126E-03
            3012             410     55.8586E-03     61.8626E-03
            3013             410     55.8586E-03     61.8626E-03
            1818             410     55.8586E-03     61.8626E-03
            1819             410     55.8586E-03     61.8626E-03
            1817             411     45.3925E-03     50.8852E-03
            1818             411     45.3925E-03     50.8852E-03
            3011             411     45.3925E-03     50.8852E-03
            3012             411     45.3925E-03     50.8852E-03
            1801             412     52.0797E-03     53.4464E-03
            1817             412     52.0797E-03     53.4464E-03
            1801             413     37.6170E-03     46.5056E-03
            1785             413     37.6170E-03     46.5056E-03
            1785             414     40.0906E-03     42.1500E-03
            1769             414     40.0906E-03     42.1500E-03
            1769             415     43.6814E-03     49.3823E-03
            1753             415     43.6814E-03     49.3823E-03
            3042             470     254.464E-03     268.045E-03
            3026             470     254.464E-03     268.045E-03
            3042             471     214.324E-03     201.307E-03
            3058             471     214.324E-03     201.307E-03
            3074             472     203.083E-03     212.101E-03
            3058             472     203.083E-03     212.101E-03
            3090             473     211.309E-03     221.148E-03
            3074             473     211.309E-03     221.148E-03
            3106             474     181.720E-03     179.500E-03
            3090             474     181.720E-03     179.500E-03
            3106             475     146.328E-03     150.245E-03
            3122             475     146.328E-03     150.245E-03
            3138             476     118.471E-03     115.391E-03
            3122             476     118.471E-03     115.391E-03
            3138             477     87.6026E-03     85.1785E-03
            3154             477     87.6026E-03     85.1785E-03
            3170             478     60.0857E-03     65.7111E-03
            3154             478     60.0857E-03     65.7111E-03
            3186             479     31.0754E-03     37.3975E-03
            3170             479     31.0754E-03     37.3975E-03
            2367             492     165.173E-06     185.160E-06
            2368             492     165.173E-06     185.160E-06
            2366             493     178.024E-06     176.526E-06
            2367             493     178.024E-06     176.526E-06
            2366             494     182.001E-06     174.817E-06
            2365             494     182.001E-06     174.817E-06
            2364             495     185.504E-06     175.512E-06
            2365             495     185.504E-06     175.512E-06
            2363             496     188.893E-06     176.293E-06
            2364             496     188.893E-06     176.293E-06
            2362             497     192.230E-06     177.976E-06
            2363             497     192.230E-06     177.976E-06
            2361             498     195.609E-06     179.467E-06
            2362             498     195.609E-06     179.467E-06
            2361             499     199.162E-06     181.521E-06
            2360             499     199.162E-06     181.521E-06
            2359             500     201.729E-06     182.837E-06
            2360             500     201.729E-06     182.837E-06
            2358             501     204.001E-06     183.476E-06
            2359             501     204.001E-06     183.476E-06
            2358             502     202.213E-06     181.136E-06
            2357             502     202.213E-06     181.136E-06
            2356             503     196.335E-06     172.926E-06
            2357             503     196.335E-06     172.926E-06
            2355             504     177.106E-06     152.519E-06
            2356             504     177.106E-06     152.519E-06
            2354             505     143.997E-06     115.202E-06
            2355             505     143.997E-06     115.202E-06
            2353             506     87.9145E-06     98.1629E-06
            2354             506     87.9145E-06     98.1629E-06
            3027             522     37.4589E-03     43.7435E-03
            3011             522     37.4589E-03     43.7435E-03
            3043             523     48.4112E-03     48.1721E-03
            3027             523     48.4112E-03     48.1721E-03
            3059             524     37.8505E-03     43.9460E-03
            3043             524     37.8505E-03     43.9460E-03
            3059             525     34.5445E-03     40.6922E-03
            3075             525     34.5445E-03     40.6922E-03
            3091             526     44.5001E-03     39.3083E-03
            3075             526     44.5001E-03     39.3083E-03
            3091             527     48.2437E-03     43.1335E-03
            3107             527     48.2437E-03     43.1335E-03
            3107             528     52.2947E-03     46.4050E-03
            3123             528     52.2947E-03     46.4050E-03
            3139             529     56.4199E-03     52.5566E-03
            3123             529     56.4199E-03     52.5566E-03
            3155             530     54.5453E-03     62.4715E-03
            3139             530     54.5453E-03     62.4715E-03
            3171             531     29.4413E-03     36.2960E-03
            3155             531     29.4413E-03     36.2960E-03
            3171             547     3.82276E-03     4.07604E-03
            3172             547     3.82276E-03     4.07604E-03
            2545             547     3.82276E-03     4.07604E-03
            2546             547     3.82276E-03     4.07604E-03
            3172             548     3.89317E-03     4.14694E-03
            3173             548     3.89317E-03     4.14694E-03
            2546             548     3.89317E-03     4.14694E-03
            2547             548     3.89317E-03     4.14694E-03
            3173             549     3.99544E-03     4.25383E-03
            2548             549     3.99544E-03     4.25383E-03
            2547             549     3.99544E-03     4.25383E-03
            3174             549     3.99544E-03     4.25383E-03
            2549             550     4.13057E-03     4.39218E-03
            3175             550     4.13057E-03     4.39218E-03
            2548             550     4.13057E-03     4.39218E-03
            3174             550     4.13057E-03     4.39218E-03
            3176             551     4.29562E-03     4.55849E-03
            2549             551     4.29562E-03     4.55849E-03
            2550             551     4.29562E-03     4.55849E-03
            3175             551     4.29562E-03     4.55849E-03
            2551             552     4.48732E-03     4.75003E-03
            3177             552     4.48732E-03     4.75003E-03
            3176             552     4.48732E-03     4.75003E-03
            2550             552     4.48732E-03     4.75003E-03
            3177             553     4.70262E-03     4.96362E-03
            2551             553     4.70262E-03     4.96362E-03
            3178             553     4.70262E-03     4.96362E-03
            2552             553     4.70262E-03     4.96362E-03
            3178             554     4.93841E-03     5.19683E-03
            2552             554     4.93841E-03     5.19683E-03
            3179             554     4.93841E-03     5.19683E-03
            2553             554     4.93841E-03     5.19683E-03
            2553             555     5.19161E-03     5.44680E-03
            3180             555     5.19161E-03     5.44680E-03
            2554             555     5.19161E-03     5.44680E-03
            3179             555     5.19161E-03     5.44680E-03
            3181             556     5.46009E-03     5.71147E-03
            2554             556     5.46009E-03     5.71147E-03
            2555             556     5.46009E-03     5.71147E-03
            3180             556     5.46009E-03     5.71147E-03
            3182             557     5.74078E-03     5.98848E-03
            2556             557     5.74078E-03     5.98848E-03
            2555             557     5.74078E-03     5.98848E-03
            3181             557     5.74078E-03     5.98848E-03
            2557             558     6.03292E-03     6.27660E-03
            3182             558     6.03292E-03     6.27660E-03
            2556             558     6.03292E-03     6.27660E-03
            3183             558     6.03292E-03     6.27660E-03
            3184             559     6.33569E-03     6.57601E-03
            3183             559     6.33569E-03     6.57601E-03
            2557             559     6.33569E-03     6.57601E-03
            2558             559     6.33569E-03     6.57601E-03
            2559             560     6.65296E-03     6.89112E-03
            3184             560     6.65296E-03     6.89112E-03
            3185             560     6.65296E-03     6.89112E-03
            2558             560     6.65296E-03     6.89112E-03
            3186             561     7.00862E-03     7.25018E-03
            2559             561     7.00862E-03     7.25018E-03
            2560             561     7.00862E-03     7.25018E-03
            3185             561     7.00862E-03     7.25018E-03
            2560             562     328.773E-06     345.900E-06
            2576             562     328.773E-06     345.900E-06
            2576             563     249.046E-06     247.304E-06
            2592             563     249.046E-06     247.304E-06
            2608             564     164.918E-06     167.155E-06
            2592             564     164.918E-06     167.155E-06
            2624             565     89.7259E-06     84.0537E-06
            2608             565     89.7259E-06     84.0537E-06
            2640             566     44.7854E-06     76.6045E-06
            2624             566     44.7854E-06     76.6045E-06
            2640             567     88.0426E-06     98.3803E-06
            2639             567     88.0426E-06     98.3803E-06
            2639             568     144.263E-06     115.496E-06
            2638             568     144.263E-06     115.496E-06
            2638             569     177.137E-06     152.558E-06
            2637             569     177.137E-06     152.558E-06
            2636             570     196.201E-06     172.772E-06
            2637             570     196.201E-06     172.772E-06
            2635             571     201.941E-06     180.834E-06
            2636             571     201.941E-06     180.834E-06
            2635             572     203.642E-06     183.081E-06
            2634             572     203.642E-06     183.081E-06
            2634             573     201.333E-06     182.410E-06
            2633             573     201.333E-06     182.410E-06
            2632             574     198.759E-06     181.086E-06
            2633             574     198.759E-06     181.086E-06
            2632             575     195.216E-06     179.044E-06
            2631             575     195.216E-06     179.044E-06
            2631             576     191.854E-06     177.574E-06
            2630             576     191.854E-06     177.574E-06
            2629             577     188.535E-06     175.914E-06
            2630             577     188.535E-06     175.914E-06
            2629             578     185.171E-06     175.151E-06
            2628             578     185.171E-06     175.151E-06
            2628             579     181.685E-06     174.465E-06
            2627             579     181.685E-06     174.465E-06
            2627             580     177.739E-06     176.167E-06
            2626             580     177.739E-06     176.167E-06
            2625             581     164.899E-06     184.806E-06
            2626             581     164.899E-06     184.806E-06
            2609             582     167.393E-06     182.911E-06
            2625             582     167.393E-06     182.911E-06
            2593             583     176.519E-06     161.637E-06
            2609             583     176.519E-06     161.637E-06
            2593             584     169.692E-06     147.647E-06
            2577             584     169.692E-06     147.647E-06
            2577             585     164.378E-06     148.161E-06
            2561             585     164.378E-06     148.161E-06
            2545             586     144.997E-06     155.068E-06
            2561             586     144.997E-06     155.068E-06
               1             635     13.7730E-03     14.8717E-03
              17             635     13.7730E-03     14.8717E-03
              18             635     13.7730E-03     14.8717E-03
               2             635     13.7730E-03     14.8717E-03
              19             636     15.0687E-03     14.8616E-03
               2             636     15.0687E-03     14.8616E-03
              18             636     15.0687E-03     14.8616E-03
               3             636     15.0687E-03     14.8616E-03
               3             637     15.8561E-03     15.1564E-03
               4             637     15.8561E-03     15.1564E-03
              20             637     15.8561E-03     15.1564E-03
              19             637     15.8561E-03     15.1564E-03
               4             638     16.6974E-03     15.7571E-03
              21             638     16.6974E-03     15.7571E-03
              20             638     16.6974E-03     15.7571E-03
               5             638     16.6974E-03     15.7571E-03
              22             639     17.5617E-03     16.3833E-03
               5             639     17.5617E-03     16.3833E-03
               6             639     17.5617E-03     16.3833E-03
              21             639     17.5617E-03     16.3833E-03
              22             640     18.4848E-03     17.1088E-03
              23             640     18.4848E-03     17.1088E-03
               7             640     18.4848E-03     17.1088E-03
               6             640     18.4848E-03     17.1088E-03
               8             641     19.4339E-03     17.8799E-03
              24             641     19.4339E-03     17.8799E-03
              23             641     19.4339E-03     17.8799E-03
               7             641     19.4339E-03     17.8799E-03
              25             642     20.3823E-03     18.6503E-03
              24             642     20.3823E-03     18.6503E-03
               9             642     20.3823E-03     18.6503E-03
               8             642     20.3823E-03     18.6503E-03
              25             643     21.2683E-03     19.3757E-03
              10             643     21.2683E-03     19.3757E-03
              26             643     21.2683E-03     19.3757E-03
               9             643     21.2683E-03     19.3757E-03
              11             644     22.0104E-03     19.9463E-03
              27             644     22.0104E-03     19.9463E-03
              26             644     22.0104E-03     19.9463E-03
              10             644     22.0104E-03     19.9463E-03
              28             645     22.3795E-03     20.1287E-03
              27             645     22.3795E-03     20.1287E-03
              11             645     22.3795E-03     20.1287E-03
              12             645     22.3795E-03     20.1287E-03
              28             646     22.2635E-03     19.7488E-03
              29             646     22.2635E-03     19.7488E-03
              12             646     22.2635E-03     19.7488E-03
              13             646     22.2635E-03     19.7488E-03
              30             647     20.8978E-03     18.0433E-03
              13             647     20.8978E-03     18.0433E-03
              14             647     20.8978E-03     18.0433E-03
              29             647     20.8978E-03     18.0433E-03
              14             648     18.1879E-03     14.6971E-03
              30             648     18.1879E-03     14.6971E-03
              15             648     18.1879E-03     14.6971E-03
              31             648     18.1879E-03     14.6971E-03
              31             649     13.0537E-03     12.2859E-03
              16             649     13.0537E-03     12.2859E-03
              15             649     13.0537E-03     12.2859E-03
              32             649     13.0537E-03     12.2859E-03
              34             650     25.8533E-03     27.7614E-03
              17             650     25.8533E-03     27.7614E-03
              33             650     25.8533E-03     27.7614E-03
              18             650     25.8533E-03     27.7614E-03
              35             651     27.6519E-03     27.9996E-03
              19             651     27.6519E-03     27.9996E-03
              34             651     27.6519E-03     27.9996E-03
              18             651     27.6519E-03     27.9996E-03
              36             652     29.2106E-03     28.3468E-03
              19             652     29.2106E-03     28.3468E-03
              20             652     29.2106E-03     28.3468E-03
              35             652     29.2106E-03     28.3468E-03
              20             653     30.6931E-03     29.2283E-03
              21             653     30.6931E-03     29.2283E-03
              36             653     30.6931E-03     29.2283E-03
              37             653     30.6931E-03     29.2283E-03
              37             654     32.1950E-03     30.3006E-03
              21             654     32.1950E-03     30.3006E-03
              38             654     32.1950E-03     30.3006E-03
              22             654     32.1950E-03     30.3006E-03
              23             655     33.8213E-03     31.5748E-03
              39             655     33.8213E-03     31.5748E-03
              22             655     33.8213E-03     31.5748E-03
              38             655     33.8213E-03     31.5748E-03
              40             656     35.5234E-03     32.9697E-03
              24             656     35.5234E-03     32.9697E-03
              23             656     35.5234E-03     32.9697E-03
              39             656     35.5234E-03     32.9697E-03
              41             657     37.2963E-03     34.4506E-03
              25             657     37.2963E-03     34.4506E-03
              24             657     37.2963E-03     34.4506E-03
              40             657     37.2963E-03     34.4506E-03
              25             658     39.0238E-03     35.9237E-03
              42             658     39.0238E-03     35.9237E-03
              41             658     39.0238E-03     35.9237E-03
              26             658     39.0238E-03     35.9237E-03
              26             659     40.5953E-03     37.2023E-03
              42             659     40.5953E-03     37.2023E-03
              43             659     40.5953E-03     37.2023E-03
              27             659     40.5953E-03     37.2023E-03
              27             660     41.6663E-03     38.0133E-03
              28             660     41.6663E-03     38.0133E-03
              44             660     41.6663E-03     38.0133E-03
              43             660     41.6663E-03     38.0133E-03
              29             661     41.6586E-03     37.6799E-03
              45             661     41.6586E-03     37.6799E-03
              28             661     41.6586E-03     37.6799E-03
              44             661     41.6586E-03     37.6799E-03
              46             662     39.6614E-03     35.2422E-03
              30             662     39.6614E-03     35.2422E-03
              45             662     39.6614E-03     35.2422E-03
              29             662     39.6614E-03     35.2422E-03
              31             663     33.2222E-03     28.6431E-03
              47             663     33.2222E-03     28.6431E-03
              46             663     33.2222E-03     28.6431E-03
              30             663     33.2222E-03     28.6431E-03
              31             664     23.6650E-03     22.7392E-03
              48             664     23.6650E-03     22.7392E-03
              47             664     23.6650E-03     22.7392E-03
              32             664     23.6650E-03     22.7392E-03
              49             665     25.1162E-03     24.6124E-03
              34             665     25.1162E-03     24.6124E-03
              33             665     25.1162E-03     24.6124E-03
              50             665     25.1162E-03     24.6124E-03
              51             666     26.1531E-03     26.4823E-03
              50             666     26.1531E-03     26.4823E-03
              35             666     26.1531E-03     26.4823E-03
              34             666     26.1531E-03     26.4823E-03
              52             667     27.4602E-03     27.2212E-03
              35             667     27.4602E-03     27.2212E-03
              36             667     27.4602E-03     27.2212E-03
              51             667     27.4602E-03     27.2212E-03
              37             668     28.9103E-03     28.1411E-03
              53             668     28.9103E-03     28.1411E-03
              52             668     28.9103E-03     28.1411E-03
              36             668     28.9103E-03     28.1411E-03
              38             669     30.4207E-03     29.4123E-03
              54             669     30.4207E-03     29.4123E-03
              37             669     30.4207E-03     29.4123E-03
              53             669     30.4207E-03     29.4123E-03
              54             670     32.1219E-03     30.8899E-03
              39             670     32.1219E-03     30.8899E-03
              38             670     32.1219E-03     30.8899E-03
              55             670     32.1219E-03     30.8899E-03
              40             671     34.0198E-03     32.6256E-03
              39             671     34.0198E-03     32.6256E-03
              55             671     34.0198E-03     32.6256E-03
              56             671     34.0198E-03     32.6256E-03
              56             672     36.0927E-03     34.5566E-03
              40             672     36.0927E-03     34.5566E-03
              57             672     36.0927E-03     34.5566E-03
              41             672     36.0927E-03     34.5566E-03
              42             673     38.3261E-03     36.6599E-03
              57             673     38.3261E-03     36.6599E-03
              58             673     38.3261E-03     36.6599E-03
              41             673     38.3261E-03     36.6599E-03
              42             674     40.5733E-03     38.7987E-03
              43             674     40.5733E-03     38.7987E-03
              58             674     40.5733E-03     38.7987E-03
              59             674     40.5733E-03     38.7987E-03
              59             675     42.7071E-03     40.8133E-03
              43             675     42.7071E-03     40.8133E-03
              60             675     42.7071E-03     40.8133E-03
              44             675     42.7071E-03     40.8133E-03
              45             676     43.8974E-03     42.0412E-03
              60             676     43.8974E-03     42.0412E-03
              61             676     43.8974E-03     42.0412E-03
              44             676     43.8974E-03     42.0412E-03
              45             677     43.0794E-03     41.4554E-03
              46             677     43.0794E-03     41.4554E-03
              62             677     43.0794E-03     41.4554E-03
              61             677     43.0794E-03     41.4554E-03
              46             678     37.1112E-03     36.4552E-03
              47             678     37.1112E-03     36.4552E-03
              63             678     37.1112E-03     36.4552E-03
              62             678     37.1112E-03     36.4552E-03
              47             679     32.0044E-03     31.8835E-03
              48             679     32.0044E-03     31.8835E-03
              63             679     32.0044E-03     31.8835E-03
              64             679     32.0044E-03     31.8835E-03
              66             680     23.6486E-03     21.6573E-03
              49             680     23.6486E-03     21.6573E-03
              65             680     23.6486E-03     21.6573E-03
              50             680     23.6486E-03     21.6573E-03
              67             681     24.9506E-03     24.0767E-03
              66             681     24.9506E-03     24.0767E-03
              51             681     24.9506E-03     24.0767E-03
              50             681     24.9506E-03     24.0767E-03
              68             682     25.9553E-03     25.8682E-03
              52             682     25.9553E-03     25.8682E-03
              67             682     25.9553E-03     25.8682E-03
              51             682     25.9553E-03     25.8682E-03
              52             683     27.1944E-03     27.1977E-03
              68             683     27.1944E-03     27.1977E-03
              53             683     27.1944E-03     27.1977E-03
              69             683     27.1944E-03     27.1977E-03
              54             684     28.7009E-03     28.6376E-03
              69             684     28.7009E-03     28.6376E-03
              53             684     28.7009E-03     28.6376E-03
              70             684     28.7009E-03     28.6376E-03
              71             685     30.4536E-03     30.3584E-03
              54             685     30.4536E-03     30.3584E-03
              70             685     30.4536E-03     30.3584E-03
              55             685     30.4536E-03     30.3584E-03
              55             686     32.4848E-03     32.3641E-03
              72             686     32.4848E-03     32.3641E-03
              56             686     32.4848E-03     32.3641E-03
              71             686     32.4848E-03     32.3641E-03
              57             687     34.7714E-03     34.6447E-03
              56             687     34.7714E-03     34.6447E-03
              72             687     34.7714E-03     34.6447E-03
              73             687     34.7714E-03     34.6447E-03
              74             688     37.2873E-03     37.1558E-03
              58             688     37.2873E-03     37.1558E-03
              57             688     37.2873E-03     37.1558E-03
              73             688     37.2873E-03     37.1558E-03
              74             689     39.9998E-03     39.8810E-03
              75             689     39.9998E-03     39.8810E-03
              59             689     39.9998E-03     39.8810E-03
              58             689     39.9998E-03     39.8810E-03
              76             690     42.6099E-03     42.5619E-03
              75             690     42.6099E-03     42.5619E-03
              60             690     42.6099E-03     42.5619E-03
              59             690     42.6099E-03     42.5619E-03
              61             691     44.9525E-03     44.9775E-03
              76             691     44.9525E-03     44.9775E-03
              77             691     44.9525E-03     44.9775E-03
              60             691     44.9525E-03     44.9775E-03
              78             692     45.1880E-03     45.8584E-03
              62             692     45.1880E-03     45.8584E-03
              61             692     45.1880E-03     45.8584E-03
              77             692     45.1880E-03     45.8584E-03
              62             693     42.5683E-03     43.9970E-03
              78             693     42.5683E-03     43.9970E-03
              63             693     42.5683E-03     43.9970E-03
              79             693     42.5683E-03     43.9970E-03
              63             694     43.6388E-03     43.8851E-03
              80             694     43.6388E-03     43.8851E-03
              64             694     43.6388E-03     43.8851E-03
              79             694     43.6388E-03     43.8851E-03
              65             695     22.0382E-03     19.9071E-03
              82             695     22.0382E-03     19.9071E-03
              81             695     22.0382E-03     19.9071E-03
              66             695     22.0382E-03     19.9071E-03
              82             696     23.2933E-03     22.3219E-03
              66             696     23.2933E-03     22.3219E-03
              67             696     23.2933E-03     22.3219E-03
              83             696     23.2933E-03     22.3219E-03
              67             697     24.3020E-03     24.5092E-03
              84             697     24.3020E-03     24.5092E-03
              68             697     24.3020E-03     24.5092E-03
              83             697     24.3020E-03     24.5092E-03
              84             698     25.4115E-03     26.1902E-03
              85             698     25.4115E-03     26.1902E-03
              68             698     25.4115E-03     26.1902E-03
              69             698     25.4115E-03     26.1902E-03
              85             699     26.8827E-03     27.8514E-03
              70             699     26.8827E-03     27.8514E-03
              86             699     26.8827E-03     27.8514E-03
              69             699     26.8827E-03     27.8514E-03
              87             700     28.6775E-03     29.8011E-03
              86             700     28.6775E-03     29.8011E-03
              71             700     28.6775E-03     29.8011E-03
              70             700     28.6775E-03     29.8011E-03
              72             701     30.7569E-03     32.0009E-03
              71             701     30.7569E-03     32.0009E-03
              87             701     30.7569E-03     32.0009E-03
              88             701     30.7569E-03     32.0009E-03
              88             702     33.1249E-03     34.4664E-03
              89             702     33.1249E-03     34.4664E-03
              73             702     33.1249E-03     34.4664E-03
              72             702     33.1249E-03     34.4664E-03
              73             703     35.7214E-03     37.1648E-03
              89             703     35.7214E-03     37.1648E-03
              90             703     35.7214E-03     37.1648E-03
              74             703     35.7214E-03     37.1648E-03
              90             704     38.5184E-03     40.0507E-03
              91             704     38.5184E-03     40.0507E-03
              74             704     38.5184E-03     40.0507E-03
              75             704     38.5184E-03     40.0507E-03
              75             705     41.4260E-03     43.1026E-03
              92             705     41.4260E-03     43.1026E-03
              76             705     41.4260E-03     43.1026E-03
              91             705     41.4260E-03     43.1026E-03
              92             706     44.1732E-03     46.0372E-03
              76             706     44.1732E-03     46.0372E-03
              93             706     44.1732E-03     46.0372E-03
              77             706     44.1732E-03     46.0372E-03
              77             707     46.9149E-03     48.8436E-03
              93             707     46.9149E-03     48.8436E-03
              78             707     46.9149E-03     48.8436E-03
              94             707     46.9149E-03     48.8436E-03
              78             708     49.8139E-03     51.3936E-03
              94             708     49.8139E-03     51.3936E-03
              95             708     49.8139E-03     51.3936E-03
              79             708     49.8139E-03     51.3936E-03
              80             709     55.1688E-03     56.6848E-03
              96             709     55.1688E-03     56.6848E-03
              95             709     55.1688E-03     56.6848E-03
              79             709     55.1688E-03     56.6848E-03
              97             710     20.3862E-03     19.0237E-03
              98             710     20.3862E-03     19.0237E-03
              81             710     20.3862E-03     19.0237E-03
              82             710     20.3862E-03     19.0237E-03
              82             711     21.3466E-03     21.5141E-03
              98             711     21.3466E-03     21.5141E-03
              99             711     21.3466E-03     21.5141E-03
              83             711     21.3466E-03     21.5141E-03
              84             712     22.2433E-03     23.2781E-03
              99             712     22.2433E-03     23.2781E-03
              83             712     22.2433E-03     23.2781E-03
             100             712     22.2433E-03     23.2781E-03
             100             713     23.4159E-03     25.0355E-03
              85             713     23.4159E-03     25.0355E-03
             101             713     23.4159E-03     25.0355E-03
              84             713     23.4159E-03     25.0355E-03
              86             714     24.8894E-03     27.0112E-03
              85             714     24.8894E-03     27.0112E-03
             101             714     24.8894E-03     27.0112E-03
             102             714     24.8894E-03     27.0112E-03
              86             715     26.6913E-03     29.1304E-03
             102             715     26.6913E-03     29.1304E-03
             103             715     26.6913E-03     29.1304E-03
              87             715     26.6913E-03     29.1304E-03
             103             716     28.7978E-03     31.4888E-03
             104             716     28.7978E-03     31.4888E-03
              87             716     28.7978E-03     31.4888E-03
              88             716     28.7978E-03     31.4888E-03
             104             717     31.1319E-03     34.0136E-03
              89             717     31.1319E-03     34.0136E-03
              88             717     31.1319E-03     34.0136E-03
             105             717     31.1319E-03     34.0136E-03
              89             718     33.6807E-03     36.7201E-03
             106             718     33.6807E-03     36.7201E-03
             105             718     33.6807E-03     36.7201E-03
              90             718     33.6807E-03     36.7201E-03
              91             719     36.3589E-03     39.5551E-03
             107             719     36.3589E-03     39.5551E-03
              90             719     36.3589E-03     39.5551E-03
             106             719     36.3589E-03     39.5551E-03
             108             720     39.2677E-03     42.5990E-03
             107             720     39.2677E-03     42.5990E-03
              91             720     39.2677E-03     42.5990E-03
              92             720     39.2677E-03     42.5990E-03
             108             721     42.3692E-03     45.9145E-03
              93             721     42.3692E-03     45.9145E-03
             109             721     42.3692E-03     45.9145E-03
              92             721     42.3692E-03     45.9145E-03
              94             722     46.6419E-03     50.0363E-03
              93             722     46.6419E-03     50.0363E-03
             109             722     46.6419E-03     50.0363E-03
             110             722     46.6419E-03     50.0363E-03
             111             723     54.9116E-03     57.2540E-03
              94             723     54.9116E-03     57.2540E-03
              95             723     54.9116E-03     57.2540E-03
             110             723     54.9116E-03     57.2540E-03
              96             724     67.5654E-03     67.9915E-03
             112             724     67.5654E-03     67.9915E-03
             111             724     67.5654E-03     67.9915E-03
              95             724     67.5654E-03     67.9915E-03
             114             725     18.6953E-03     18.8380E-03
              98             725     18.6953E-03     18.8380E-03
              97             725     18.6953E-03     18.8380E-03
             113             725     18.6953E-03     18.8380E-03
              98             726     19.2070E-03     20.3444E-03
              99             726     19.2070E-03     20.3444E-03
             114             726     19.2070E-03     20.3444E-03
             115             726     19.2070E-03     20.3444E-03
             116             727     19.9478E-03     21.8833E-03
             115             727     19.9478E-03     21.8833E-03
             100             727     19.9478E-03     21.8833E-03
              99             727     19.9478E-03     21.8833E-03
             100             728     21.1588E-03     23.8929E-03
             116             728     21.1588E-03     23.8929E-03
             117             728     21.1588E-03     23.8929E-03
             101             728     21.1588E-03     23.8929E-03
             117             729     22.6708E-03     26.0699E-03
             101             729     22.6708E-03     26.0699E-03
             102             729     22.6708E-03     26.0699E-03
             118             729     22.6708E-03     26.0699E-03
             102             730     24.5154E-03     28.4094E-03
             118             730     24.5154E-03     28.4094E-03
             119             730     24.5154E-03     28.4094E-03
             103             730     24.5154E-03     28.4094E-03
             119             731     26.6209E-03     30.8626E-03
             120             731     26.6209E-03     30.8626E-03
             104             731     26.6209E-03     30.8626E-03
             103             731     26.6209E-03     30.8626E-03
             121             732     28.9310E-03     33.4473E-03
             104             732     28.9310E-03     33.4473E-03
             105             732     28.9310E-03     33.4473E-03
             120             732     28.9310E-03     33.4473E-03
             121             733     31.3794E-03     36.0905E-03
             122             733     31.3794E-03     36.0905E-03
             105             733     31.3794E-03     36.0905E-03
             106             733     31.3794E-03     36.0905E-03
             123             734     33.9887E-03     38.8693E-03
             122             734     33.9887E-03     38.8693E-03
             106             734     33.9887E-03     38.8693E-03
             107             734     33.9887E-03     38.8693E-03
             124             735     36.7342E-03     41.7670E-03
             108             735     36.7342E-03     41.7670E-03
             123             735     36.7342E-03     41.7670E-03
             107             735     36.7342E-03     41.7670E-03
             109             736     40.2144E-03     45.3384E-03
             125             736     40.2144E-03     45.3384E-03
             124             736     40.2144E-03     45.3384E-03
             108             736     40.2144E-03     45.3384E-03
             110             737     44.9536E-03     50.2281E-03
             109             737     44.9536E-03     50.2281E-03
             126             737     44.9536E-03     50.2281E-03
             125             737     44.9536E-03     50.2281E-03
             111             738     54.3124E-03     59.6285E-03
             126             738     54.3124E-03     59.6285E-03
             110             738     54.3124E-03     59.6285E-03
             127             738     54.3124E-03     59.6285E-03
             128             739     74.5034E-03     78.9873E-03
             127             739     74.5034E-03     78.9873E-03
             112             739     74.5034E-03     78.9873E-03
             111             739     74.5034E-03     78.9873E-03
             113             740     24.2260E-03     26.1409E-03
             129             740     24.2260E-03     26.1409E-03
             130             740     24.2260E-03     26.1409E-03
             114             740     24.2260E-03     26.1409E-03
             114             741     26.7392E-03     27.0509E-03
             115             741     26.7392E-03     27.0509E-03
             130             741     26.7392E-03     27.0509E-03
             131             741     26.7392E-03     27.0509E-03
             131             742     29.1310E-03     29.2083E-03
             116             742     29.1310E-03     29.2083E-03
             115             742     29.1310E-03     29.2083E-03
             132             742     29.1310E-03     29.2083E-03
             117             743     32.1579E-03     32.4234E-03
             133             743     32.1579E-03     32.4234E-03
             132             743     32.1579E-03     32.4234E-03
             116             743     32.1579E-03     32.4234E-03
             133             744     35.5771E-03     35.9273E-03
             117             744     35.5771E-03     35.9273E-03
             134             744     35.5771E-03     35.9273E-03
             118             744     35.5771E-03     35.9273E-03
             134             745     39.4088E-03     39.8798E-03
             118             745     39.4088E-03     39.8798E-03
             135             745     39.4088E-03     39.8798E-03
             119             745     39.4088E-03     39.8798E-03
             135             746     43.4568E-03     43.9809E-03
             119             746     43.4568E-03     43.9809E-03
             120             746     43.4568E-03     43.9809E-03
             136             746     43.4568E-03     43.9809E-03
             136             747     47.7059E-03     48.2863E-03
             120             747     47.7059E-03     48.2863E-03
             121             747     47.7059E-03     48.2863E-03
             137             747     47.7059E-03     48.2863E-03
             122             748     52.0009E-03     52.5922E-03
             121             748     52.0009E-03     52.5922E-03
             137             748     52.0009E-03     52.5922E-03
             138             748     52.0009E-03     52.5922E-03
             139             749     56.3299E-03     56.9056E-03
             123             749     56.3299E-03     56.9056E-03
             122             749     56.3299E-03     56.9056E-03
             138             749     56.3299E-03     56.9056E-03
             140             750     60.5511E-03     61.0694E-03
             123             750     60.5511E-03     61.0694E-03
             124             750     60.5511E-03     61.0694E-03
             139             750     60.5511E-03     61.0694E-03
             140             751     64.6503E-03     65.0303E-03
             124             751     64.6503E-03     65.0303E-03
             141             751     64.6503E-03     65.0303E-03
             125             751     64.6503E-03     65.0303E-03
             142             752     68.7609E-03     68.8778E-03
             125             752     68.7609E-03     68.8778E-03
             141             752     68.7609E-03     68.8778E-03
             126             752     68.7609E-03     68.8778E-03
             143             753     72.9070E-03     73.0271E-03
             126             753     72.9070E-03     73.0271E-03
             142             753     72.9070E-03     73.0271E-03
             127             753     72.9070E-03     73.0271E-03
             144             754     79.3694E-03     80.8785E-03
             143             754     79.3694E-03     80.8785E-03
             128             754     79.3694E-03     80.8785E-03
             127             754     79.3694E-03     80.8785E-03
             146             755     29.4784E-03     32.0137E-03
             130             755     29.4784E-03     32.0137E-03
             129             755     29.4784E-03     32.0137E-03
             145             755     29.4784E-03     32.0137E-03
             131             756     32.9355E-03     33.1145E-03
             146             756     32.9355E-03     33.1145E-03
             130             756     32.9355E-03     33.1145E-03
             147             756     32.9355E-03     33.1145E-03
             132             757     37.2984E-03     35.8724E-03
             131             757     37.2984E-03     35.8724E-03
             148             757     37.2984E-03     35.8724E-03
             147             757     37.2984E-03     35.8724E-03
             133             758     42.2500E-03     40.1441E-03
             148             758     42.2500E-03     40.1441E-03
             149             758     42.2500E-03     40.1441E-03
             132             758     42.2500E-03     40.1441E-03
             150             759     47.7497E-03     45.2766E-03
             134             759     47.7497E-03     45.2766E-03
             133             759     47.7497E-03     45.2766E-03
             149             759     47.7497E-03     45.2766E-03
             150             760     53.7090E-03     50.9796E-03
             151             760     53.7090E-03     50.9796E-03
             134             760     53.7090E-03     50.9796E-03
             135             760     53.7090E-03     50.9796E-03
             136             761     59.9727E-03     57.0620E-03
             151             761     59.9727E-03     57.0620E-03
             135             761     59.9727E-03     57.0620E-03
             152             761     59.9727E-03     57.0620E-03
             152             762     66.4286E-03     63.3925E-03
             153             762     66.4286E-03     63.3925E-03
             136             762     66.4286E-03     63.3925E-03
             137             762     66.4286E-03     63.3925E-03
             137             763     73.0186E-03     69.8373E-03
             154             763     73.0186E-03     69.8373E-03
             153             763     73.0186E-03     69.8373E-03
             138             763     73.0186E-03     69.8373E-03
             139             764     79.5618E-03     76.2926E-03
             154             764     79.5618E-03     76.2926E-03
             155             764     79.5618E-03     76.2926E-03
             138             764     79.5618E-03     76.2926E-03
             155             765     85.9989E-03     82.5080E-03
             156             765     85.9989E-03     82.5080E-03
             139             765     85.9989E-03     82.5080E-03
             140             765     85.9989E-03     82.5080E-03
             140             766     91.7336E-03     88.0840E-03
             141             766     91.7336E-03     88.0840E-03
             156             766     91.7336E-03     88.0840E-03
             157             766     91.7336E-03     88.0840E-03
             141             767     95.8236E-03     92.0157E-03
             158             767     95.8236E-03     92.0157E-03
             142             767     95.8236E-03     92.0157E-03
             157             767     95.8236E-03     92.0157E-03
             143             768     96.3043E-03     92.3472E-03
             158             768     96.3043E-03     92.3472E-03
             159             768     96.3043E-03     92.3472E-03
             142             768     96.3043E-03     92.3472E-03
             160             769     89.6372E-03     86.3551E-03
             143             769     89.6372E-03     86.3551E-03
             144             769     89.6372E-03     86.3551E-03
             159             769     89.6372E-03     86.3551E-03
             145             770     26.8980E-03     26.4840E-03
             161             770     26.8980E-03     26.4840E-03
             162             770     26.8980E-03     26.4840E-03
             146             770     26.8980E-03     26.4840E-03
             163             771     28.9709E-03     29.6711E-03
             147             771     28.9709E-03     29.6711E-03
             146             771     28.9709E-03     29.6711E-03
             162             771     28.9709E-03     29.6711E-03
             147             772     33.0514E-03     33.0597E-03
             148             772     33.0514E-03     33.0597E-03
             164             772     33.0514E-03     33.0597E-03
             163             772     33.0514E-03     33.0597E-03
             149             773     38.2408E-03     37.8185E-03
             165             773     38.2408E-03     37.8185E-03
             148             773     38.2408E-03     37.8185E-03
             164             773     38.2408E-03     37.8185E-03
             149             774     44.0545E-03     43.5121E-03
             150             774     44.0545E-03     43.5121E-03
             166             774     44.0545E-03     43.5121E-03
             165             774     44.0545E-03     43.5121E-03
             151             775     50.3983E-03     49.7849E-03
             166             775     50.3983E-03     49.7849E-03
             150             775     50.3983E-03     49.7849E-03
             167             775     50.3983E-03     49.7849E-03
             151             776     57.1032E-03     56.4832E-03
             168             776     57.1032E-03     56.4832E-03
             167             776     57.1032E-03     56.4832E-03
             152             776     57.1032E-03     56.4832E-03
             153             777     64.0970E-03     63.4492E-03
             168             777     64.0970E-03     63.4492E-03
             169             777     64.0970E-03     63.4492E-03
             152             777     64.0970E-03     63.4492E-03
             154             778     71.2944E-03     70.6469E-03
             170             778     71.2944E-03     70.6469E-03
             169             778     71.2944E-03     70.6469E-03
             153             778     71.2944E-03     70.6469E-03
             154             779     78.7016E-03     78.0357E-03
             155             779     78.7016E-03     78.0357E-03
             170             779     78.7016E-03     78.0357E-03
             171             779     78.7016E-03     78.0357E-03
             155             780     86.1436E-03     85.5304E-03
             171             780     86.1436E-03     85.5304E-03
             156             780     86.1436E-03     85.5304E-03
             172             780     86.1436E-03     85.5304E-03
             173             781     93.5602E-03     92.9824E-03
             157             781     93.5602E-03     92.9824E-03
             156             781     93.5602E-03     92.9824E-03
             172             781     93.5602E-03     92.9824E-03
             174             782     99.8679E-03     99.7066E-03
             158             782     99.8679E-03     99.7066E-03
             173             782     99.8679E-03     99.7066E-03
             157             782     99.8679E-03     99.7066E-03
             159             783     102.088E-03     103.297E-03
             174             783     102.088E-03     103.297E-03
             175             783     102.088E-03     103.297E-03
             158             783     102.088E-03     103.297E-03
             176             784     102.452E-03     103.775E-03
             175             784     102.452E-03     103.775E-03
             160             784     102.452E-03     103.775E-03
             159             784     102.452E-03     103.775E-03
             178             785     23.1154E-03     20.8772E-03
             162             785     23.1154E-03     20.8772E-03
             177             785     23.1154E-03     20.8772E-03
             161             785     23.1154E-03     20.8772E-03
             178             786     25.4389E-03     25.4922E-03
             162             786     25.4389E-03     25.4922E-03
             179             786     25.4389E-03     25.4922E-03
             163             786     25.4389E-03     25.4922E-03
             179             787     29.1836E-03     30.5481E-03
             180             787     29.1836E-03     30.5481E-03
             163             787     29.1836E-03     30.5481E-03
             164             787     29.1836E-03     30.5481E-03
             181             788     34.4235E-03     35.9838E-03
             164             788     34.4235E-03     35.9838E-03
             180             788     34.4235E-03     35.9838E-03
             165             788     34.4235E-03     35.9838E-03
             166             789     40.5425E-03     42.2008E-03
             182             789     40.5425E-03     42.2008E-03
             165             789     40.5425E-03     42.2008E-03
             181             789     40.5425E-03     42.2008E-03
             182             790     47.2088E-03     48.9873E-03
             167             790     47.2088E-03     48.9873E-03
             166             790     47.2088E-03     48.9873E-03
             183             790     47.2088E-03     48.9873E-03
             167             791     54.2712E-03     56.1149E-03
             184             791     54.2712E-03     56.1149E-03
             168             791     54.2712E-03     56.1149E-03
             183             791     54.2712E-03     56.1149E-03
             184             792     61.6151E-03     63.5183E-03
             185             792     61.6151E-03     63.5183E-03
             168             792     61.6151E-03     63.5183E-03
             169             792     61.6151E-03     63.5183E-03
             169             793     69.1836E-03     71.1416E-03
             170             793     69.1836E-03     71.1416E-03
             185             793     69.1836E-03     71.1416E-03
             186             793     69.1836E-03     71.1416E-03
             170             794     76.9637E-03     78.9825E-03
             171             794     76.9637E-03     78.9825E-03
             186             794     76.9637E-03     78.9825E-03
             187             794     76.9637E-03     78.9825E-03
             172             795     84.9216E-03     87.1059E-03
             187             795     84.9216E-03     87.1059E-03
             188             795     84.9216E-03     87.1059E-03
             171             795     84.9216E-03     87.1059E-03
             189             796     92.9742E-03     95.4118E-03
             188             796     92.9742E-03     95.4118E-03
             173             796     92.9742E-03     95.4118E-03
             172             796     92.9742E-03     95.4118E-03
             190             797     101.297E-03     104.013E-03
             173             797     101.297E-03     104.013E-03
             189             797     101.297E-03     104.013E-03
             174             797     101.297E-03     104.013E-03
             175             798     108.724E-03     111.729E-03
             190             798     108.724E-03     111.729E-03
             174             798     108.724E-03     111.729E-03
             191             798     108.724E-03     111.729E-03
             176             799     115.657E-03     118.701E-03
             175             799     115.657E-03     118.701E-03
             192             799     115.657E-03     118.701E-03
             191             799     115.657E-03     118.701E-03
             193             800     19.0721E-03     17.2495E-03
             194             800     19.0721E-03     17.2495E-03
             177             800     19.0721E-03     17.2495E-03
             178             800     19.0721E-03     17.2495E-03
             179             801     21.3018E-03     22.2615E-03
             194             801     21.3018E-03     22.2615E-03
             195             801     21.3018E-03     22.2615E-03
             178             801     21.3018E-03     22.2615E-03
             196             802     25.2543E-03     28.1977E-03
             195             802     25.2543E-03     28.1977E-03
             179             802     25.2543E-03     28.1977E-03
             180             802     25.2543E-03     28.1977E-03
             180             803     30.6396E-03     34.4527E-03
             197             803     30.6396E-03     34.4527E-03
             181             803     30.6396E-03     34.4527E-03
             196             803     30.6396E-03     34.4527E-03
             197             804     37.0539E-03     41.2357E-03
             198             804     37.0539E-03     41.2357E-03
             181             804     37.0539E-03     41.2357E-03
             182             804     37.0539E-03     41.2357E-03
             198             805     44.0100E-03     48.3819E-03
             182             805     44.0100E-03     48.3819E-03
             183             805     44.0100E-03     48.3819E-03
             199             805     44.0100E-03     48.3819E-03
             199             806     51.3053E-03     55.7951E-03
             183             806     51.3053E-03     55.7951E-03
             200             806     51.3053E-03     55.7951E-03
             184             806     51.3053E-03     55.7951E-03
             200             807     58.8167E-03     63.3805E-03
             184             807     58.8167E-03     63.3805E-03
             201             807     58.8167E-03     63.3805E-03
             185             807     58.8167E-03     63.3805E-03
             201             808     66.5098E-03     71.1141E-03
             202             808     66.5098E-03     71.1141E-03
             185             808     66.5098E-03     71.1141E-03
             186             808     66.5098E-03     71.1141E-03
             203             809     74.2891E-03     78.9831E-03
             186             809     74.2891E-03     78.9831E-03
             202             809     74.2891E-03     78.9831E-03
             187             809     74.2891E-03     78.9831E-03
             203             810     82.2865E-03     87.0549E-03
             204             810     82.2865E-03     87.0549E-03
             188             810     82.2865E-03     87.0549E-03
             187             810     82.2865E-03     87.0549E-03
             188             811     90.4961E-03     95.5368E-03
             205             811     90.4961E-03     95.5368E-03
             204             811     90.4961E-03     95.5368E-03
             189             811     90.4961E-03     95.5368E-03
             205             812     99.5469E-03     104.726E-03
             206             812     99.5469E-03     104.726E-03
             190             812     99.5469E-03     104.726E-03
             189             812     99.5469E-03     104.726E-03
             191             813     112.770E-03     116.812E-03
             206             813     112.770E-03     116.812E-03
             207             813     112.770E-03     116.812E-03
             190             813     112.770E-03     116.812E-03
             191             814     128.473E-03     130.033E-03
             207             814     128.473E-03     130.033E-03
             208             814     128.473E-03     130.033E-03
             192             814     128.473E-03     130.033E-03
             193             815     15.5241E-03     14.6442E-03
             210             815     15.5241E-03     14.6442E-03
             194             815     15.5241E-03     14.6442E-03
             209             815     15.5241E-03     14.6442E-03
             194             816     16.7039E-03     19.9214E-03
             195             816     16.7039E-03     19.9214E-03
             210             816     16.7039E-03     19.9214E-03
             211             816     16.7039E-03     19.9214E-03
             212             817     20.8496E-03     26.2452E-03
             195             817     20.8496E-03     26.2452E-03
             196             817     20.8496E-03     26.2452E-03
             211             817     20.8496E-03     26.2452E-03
             197             818     26.7897E-03     33.3183E-03
             212             818     26.7897E-03     33.3183E-03
             213             818     26.7897E-03     33.3183E-03
             196             818     26.7897E-03     33.3183E-03
             198             819     33.5522E-03     40.5453E-03
             197             819     33.5522E-03     40.5453E-03
             213             819     33.5522E-03     40.5453E-03
             214             819     33.5522E-03     40.5453E-03
             199             820     40.7577E-03     47.9451E-03
             214             820     40.7577E-03     47.9451E-03
             198             820     40.7577E-03     47.9451E-03
             215             820     40.7577E-03     47.9451E-03
             199             821     48.1812E-03     55.4642E-03
             200             821     48.1812E-03     55.4642E-03
             215             821     48.1812E-03     55.4642E-03
             216             821     48.1812E-03     55.4642E-03
             216             822     55.7451E-03     63.0682E-03
             217             822     55.7451E-03     63.0682E-03
             201             822     55.7451E-03     63.0682E-03
             200             822     55.7451E-03     63.0682E-03
             217             823     63.3470E-03     70.6882E-03
             202             823     63.3470E-03     70.6882E-03
             201             823     63.3470E-03     70.6882E-03
             218             823     63.3470E-03     70.6882E-03
             202             824     71.0393E-03     78.3587E-03
             219             824     71.0393E-03     78.3587E-03
             218             824     71.0393E-03     78.3587E-03
             203             824     71.0393E-03     78.3587E-03
             220             825     78.7717E-03     86.0623E-03
             204             825     78.7717E-03     86.0623E-03
             219             825     78.7717E-03     86.0623E-03
             203             825     78.7717E-03     86.0623E-03
             220             826     87.0462E-03     94.2196E-03
             221             826     87.0462E-03     94.2196E-03
             205             826     87.0462E-03     94.2196E-03
             204             826     87.0462E-03     94.2196E-03
             221             827     96.3565E-03     103.399E-03
             206             827     96.3565E-03     103.399E-03
             222             827     96.3565E-03     103.399E-03
             205             827     96.3565E-03     103.399E-03
             222             828     109.987E-03     116.788E-03
             223             828     109.987E-03     116.788E-03
             206             828     109.987E-03     116.788E-03
             207             828     109.987E-03     116.788E-03
             223             829     134.128E-03     139.334E-03
             224             829     134.128E-03     139.334E-03
             208             829     134.128E-03     139.334E-03
             207             829     134.128E-03     139.334E-03
             226             830     26.5411E-03     29.3647E-03
             209             830     26.5411E-03     29.3647E-03
             225             830     26.5411E-03     29.3647E-03
             210             830     26.5411E-03     29.3647E-03
             227             831     30.4376E-03     32.5170E-03
             210             831     30.4376E-03     32.5170E-03
             226             831     30.4376E-03     32.5170E-03
             211             831     30.4376E-03     32.5170E-03
             228             832     35.9887E-03     38.6650E-03
             212             832     35.9887E-03     38.6650E-03
             211             832     35.9887E-03     38.6650E-03
             227             832     35.9887E-03     38.6650E-03
             228             833     43.1318E-03     46.1426E-03
             229             833     43.1318E-03     46.1426E-03
             212             833     43.1318E-03     46.1426E-03
             213             833     43.1318E-03     46.1426E-03
             229             834     51.1082E-03     54.1920E-03
             213             834     51.1082E-03     54.1920E-03
             214             834     51.1082E-03     54.1920E-03
             230             834     51.1082E-03     54.1920E-03
             215             835     59.5382E-03     62.6271E-03
             214             835     59.5382E-03     62.6271E-03
             230             835     59.5382E-03     62.6271E-03
             231             835     59.5382E-03     62.6271E-03
             216             836     68.2793E-03     71.2984E-03
             231             836     68.2793E-03     71.2984E-03
             232             836     68.2793E-03     71.2984E-03
             215             836     68.2793E-03     71.2984E-03
             232             837     77.0918E-03     80.0524E-03
             233             837     77.0918E-03     80.0524E-03
             217             837     77.0918E-03     80.0524E-03
             216             837     77.0918E-03     80.0524E-03
             233             838     85.9345E-03     88.7646E-03
             234             838     85.9345E-03     88.7646E-03
             217             838     85.9345E-03     88.7646E-03
             218             838     85.9345E-03     88.7646E-03
             235             839     94.6143E-03     97.3114E-03
             234             839     94.6143E-03     97.3114E-03
             218             839     94.6143E-03     97.3114E-03
             219             839     94.6143E-03     97.3114E-03
             220             840     103.106E-03     105.441E-03
             235             840     103.106E-03     105.441E-03
             236             840     103.106E-03     105.441E-03
             219             840     103.106E-03     105.441E-03
             236             841     111.266E-03     113.159E-03
             237             841     111.266E-03     113.159E-03
             220             841     111.266E-03     113.159E-03
             221             841     111.266E-03     113.159E-03
             222             842     119.286E-03     120.434E-03
             237             842     119.286E-03     120.434E-03
             238             842     119.286E-03     120.434E-03
             221             842     119.286E-03     120.434E-03
             222             843     127.232E-03     127.801E-03
             223             843     127.232E-03     127.801E-03
             238             843     127.232E-03     127.801E-03
             239             843     127.232E-03     127.801E-03
             240             844     137.824E-03     140.165E-03
             224             844     137.824E-03     140.165E-03
             223             844     137.824E-03     140.165E-03
             239             844     137.824E-03     140.165E-03
             242             845     37.7146E-03     42.2943E-03
             241             845     37.7146E-03     42.2943E-03
             225             845     37.7146E-03     42.2943E-03
             226             845     37.7146E-03     42.2943E-03
             227             846     42.8754E-03     44.1664E-03
             242             846     42.8754E-03     44.1664E-03
             226             846     42.8754E-03     44.1664E-03
             243             846     42.8754E-03     44.1664E-03
             227             847     50.2292E-03     49.5762E-03
             243             847     50.2292E-03     49.5762E-03
             244             847     50.2292E-03     49.5762E-03
             228             847     50.2292E-03     49.5762E-03
             228             848     58.7391E-03     57.4561E-03
             229             848     58.7391E-03     57.4561E-03
             244             848     58.7391E-03     57.4561E-03
             245             848     58.7391E-03     57.4561E-03
             230             849     68.1326E-03     66.6025E-03
             229             849     68.1326E-03     66.6025E-03
             245             849     68.1326E-03     66.6025E-03
             246             849     68.1326E-03     66.6025E-03
             247             850     78.2057E-03     76.5136E-03
             230             850     78.2057E-03     76.5136E-03
             231             850     78.2057E-03     76.5136E-03
             246             850     78.2057E-03     76.5136E-03
             232             851     88.6463E-03     86.8652E-03
             248             851     88.6463E-03     86.8652E-03
             231             851     88.6463E-03     86.8652E-03
             247             851     88.6463E-03     86.8652E-03
             249             852     99.3346E-03     97.4252E-03
             248             852     99.3346E-03     97.4252E-03
             232             852     99.3346E-03     97.4252E-03
             233             852     99.3346E-03     97.4252E-03
             250             853     110.055E-03     108.051E-03
             233             853     110.055E-03     108.051E-03
             249             853     110.055E-03     108.051E-03
             234             853     110.055E-03     108.051E-03
             250             854     120.709E-03     118.475E-03
             235             854     120.709E-03     118.475E-03
             251             854     120.709E-03     118.475E-03
             234             854     120.709E-03     118.475E-03
             235             855     130.945E-03     128.491E-03
             251             855     130.945E-03     128.491E-03
             252             855     130.945E-03     128.491E-03
             236             855     130.945E-03     128.491E-03
             237             856     140.246E-03     137.458E-03
             236             856     140.246E-03     137.458E-03
             252             856     140.246E-03     137.458E-03
             253             856     140.246E-03     137.458E-03
             253             857     147.879E-03     144.660E-03
             237             857     147.879E-03     144.660E-03
             254             857     147.879E-03     144.660E-03
             238             857     147.879E-03     144.660E-03
             238             858     151.764E-03     148.706E-03
             255             858     151.764E-03     148.706E-03
             254             858     151.764E-03     148.706E-03
             239             858     151.764E-03     148.706E-03
             239             859     150.015E-03     146.772E-03
             256             859     150.015E-03     146.772E-03
             240             859     150.015E-03     146.772E-03
             255             859     150.015E-03     146.772E-03
             241             860     33.4731E-03     34.4007E-03
             242             860     33.4731E-03     34.4007E-03
             257             860     33.4731E-03     34.4007E-03
             258             860     33.4731E-03     34.4007E-03
             258             861     36.7705E-03     39.0927E-03
             259             861     36.7705E-03     39.0927E-03
             242             861     36.7705E-03     39.0927E-03
             243             861     36.7705E-03     39.0927E-03
             244             862     44.2648E-03     45.3088E-03
             260             862     44.2648E-03     45.3088E-03
             243             862     44.2648E-03     45.3088E-03
             259             862     44.2648E-03     45.3088E-03
             260             863     53.6415E-03     53.9599E-03
             261             863     53.6415E-03     53.9599E-03
             244             863     53.6415E-03     53.9599E-03
             245             863     53.6415E-03     53.9599E-03
             262             864     63.9373E-03     64.0421E-03
             245             864     63.9373E-03     64.0421E-03
             261             864     63.9373E-03     64.0421E-03
             246             864     63.9373E-03     64.0421E-03
             246             865     74.8626E-03     74.9077E-03
             262             865     74.8626E-03     74.9077E-03
             247             865     74.8626E-03     74.9077E-03
             263             865     74.8626E-03     74.9077E-03
             264             866     86.1999E-03     86.2457E-03
             263             866     86.1999E-03     86.2457E-03
             248             866     86.1999E-03     86.2457E-03
             247             866     86.1999E-03     86.2457E-03
             265             867     97.8332E-03     97.8940E-03
             264             867     97.8332E-03     97.8940E-03
             249             867     97.8332E-03     97.8940E-03
             248             867     97.8332E-03     97.8940E-03
             249             868     109.699E-03     109.751E-03
             266             868     109.699E-03     109.751E-03
             265             868     109.699E-03     109.751E-03
             250             868     109.699E-03     109.751E-03
             251             869     121.631E-03     121.743E-03
             250             869     121.631E-03     121.743E-03
             266             869     121.631E-03     121.743E-03
             267             869     121.631E-03     121.743E-03
             268             870     133.574E-03     133.716E-03
             267             870     133.574E-03     133.716E-03
             251             870     133.574E-03     133.716E-03
             252             870     133.574E-03     133.716E-03
             269             871     144.910E-03     145.341E-03
             253             871     144.910E-03     145.341E-03
             268             871     144.910E-03     145.341E-03
             252             871     144.910E-03     145.341E-03
             253             872     154.583E-03     155.721E-03
             254             872     154.583E-03     155.721E-03
             270             872     154.583E-03     155.721E-03
             269             872     154.583E-03     155.721E-03
             271             873     160.868E-03     162.873E-03
             255             873     160.868E-03     162.873E-03
             270             873     160.868E-03     162.873E-03
             254             873     160.868E-03     162.873E-03
             271             874     164.558E-03     166.903E-03
             255             874     164.558E-03     166.903E-03
             272             874     164.558E-03     166.903E-03
             256             874     164.558E-03     166.903E-03
             273             875     27.6250E-03     26.1978E-03
             258             875     27.6250E-03     26.1978E-03
             274             875     27.6250E-03     26.1978E-03
             257             875     27.6250E-03     26.1978E-03
             258             876     31.6284E-03     33.0008E-03
             259             876     31.6284E-03     33.0008E-03
             275             876     31.6284E-03     33.0008E-03
             274             876     31.6284E-03     33.0008E-03
             275             877     39.1317E-03     41.4535E-03
             260             877     39.1317E-03     41.4535E-03
             259             877     39.1317E-03     41.4535E-03
             276             877     39.1317E-03     41.4535E-03
             276             878     49.1697E-03     51.2103E-03
             260             878     49.1697E-03     51.2103E-03
             261             878     49.1697E-03     51.2103E-03
             277             878     49.1697E-03     51.2103E-03
             262             879     60.2159E-03     62.1833E-03
             261             879     60.2159E-03     62.1833E-03
             278             879     60.2159E-03     62.1833E-03
             277             879     60.2159E-03     62.1833E-03
             263             880     71.8004E-03     73.7916E-03
             279             880     71.8004E-03     73.7916E-03
             262             880     71.8004E-03     73.7916E-03
             278             880     71.8004E-03     73.7916E-03
             263             881     83.7977E-03     85.8394E-03
             280             881     83.7977E-03     85.8394E-03
             279             881     83.7977E-03     85.8394E-03
             264             881     83.7977E-03     85.8394E-03
             280             882     96.0719E-03     98.1964E-03
             281             882     96.0719E-03     98.1964E-03
             264             882     96.0719E-03     98.1964E-03
             265             882     96.0719E-03     98.1964E-03
             265             883     108.587E-03     110.820E-03
             282             883     108.587E-03     110.820E-03
             266             883     108.587E-03     110.820E-03
             281             883     108.587E-03     110.820E-03
             266             884     121.338E-03     123.744E-03
             282             884     121.338E-03     123.744E-03
             267             884     121.338E-03     123.744E-03
             283             884     121.338E-03     123.744E-03
             267             885     134.141E-03     136.880E-03
             268             885     134.141E-03     136.880E-03
             283             885     134.141E-03     136.880E-03
             284             885     134.141E-03     136.880E-03
             268             886     147.126E-03     150.264E-03
             285             886     147.126E-03     150.264E-03
             269             886     147.126E-03     150.264E-03
             284             886     147.126E-03     150.264E-03
             286             887     159.228E-03     163.131E-03
             270             887     159.228E-03     163.131E-03
             269             887     159.228E-03     163.131E-03
             285             887     159.228E-03     163.131E-03
             286             888     169.281E-03     173.965E-03
             287             888     169.281E-03     173.965E-03
             271             888     169.281E-03     173.965E-03
             270             888     169.281E-03     173.965E-03
             287             889     179.180E-03     182.374E-03
             288             889     179.180E-03     182.374E-03
             271             889     179.180E-03     182.374E-03
             272             889     179.180E-03     182.374E-03
             289             890     21.5398E-03     19.8611E-03
             290             890     21.5398E-03     19.8611E-03
             273             890     21.5398E-03     19.8611E-03
             274             890     21.5398E-03     19.8611E-03
             291             891     25.9828E-03     27.4953E-03
             275             891     25.9828E-03     27.4953E-03
             274             891     25.9828E-03     27.4953E-03
             290             891     25.9828E-03     27.4953E-03
             291             892     34.6027E-03     37.8781E-03
             275             892     34.6027E-03     37.8781E-03
             292             892     34.6027E-03     37.8781E-03
             276             892     34.6027E-03     37.8781E-03
             292             893     45.1628E-03     49.0371E-03
             277             893     45.1628E-03     49.0371E-03
             293             893     45.1628E-03     49.0371E-03
             276             893     45.1628E-03     49.0371E-03
             293             894     56.7250E-03     60.7131E-03
             277             894     56.7250E-03     60.7131E-03
             294             894     56.7250E-03     60.7131E-03
             278             894     56.7250E-03     60.7131E-03
             279             895     68.7949E-03     72.8650E-03
             294             895     68.7949E-03     72.8650E-03
             278             895     68.7949E-03     72.8650E-03
             295             895     68.7949E-03     72.8650E-03
             280             896     81.1315E-03     85.2860E-03
             279             896     81.1315E-03     85.2860E-03
             295             896     81.1315E-03     85.2860E-03
             296             896     81.1315E-03     85.2860E-03
             281             897     93.7085E-03     97.9409E-03
             280             897     93.7085E-03     97.9409E-03
             296             897     93.7085E-03     97.9409E-03
             297             897     93.7085E-03     97.9409E-03
             282             898     106.456E-03     110.830E-03
             297             898     106.456E-03     110.830E-03
             281             898     106.456E-03     110.830E-03
             298             898     106.456E-03     110.830E-03
             282             899     119.410E-03     123.963E-03
             283             899     119.410E-03     123.963E-03
             298             899     119.410E-03     123.963E-03
             299             899     119.410E-03     123.963E-03
             283             900     132.647E-03     137.552E-03
             299             900     132.647E-03     137.552E-03
             284             900     132.647E-03     137.552E-03
             300             900     132.647E-03     137.552E-03
             284             901     146.184E-03     151.534E-03
             285             901     146.184E-03     151.534E-03
             301             901     146.184E-03     151.534E-03
             300             901     146.184E-03     151.534E-03
             286             902     161.154E-03     166.508E-03
             302             902     161.154E-03     166.508E-03
             285             902     161.154E-03     166.508E-03
             301             902     161.154E-03     166.508E-03
             287             903     176.905E-03     181.799E-03
             302             903     176.905E-03     181.799E-03
             303             903     176.905E-03     181.799E-03
             286             903     176.905E-03     181.799E-03
             287             904     191.472E-03     196.011E-03
             288             904     191.472E-03     196.011E-03
             304             904     191.472E-03     196.011E-03
             303             904     191.472E-03     196.011E-03
             305             905     16.1806E-03     13.9216E-03
             290             905     16.1806E-03     13.9216E-03
             306             905     16.1806E-03     13.9216E-03
             289             905     16.1806E-03     13.9216E-03
             306             906     20.7497E-03     23.3857E-03
             307             906     20.7497E-03     23.3857E-03
             290             906     20.7497E-03     23.3857E-03
             291             906     20.7497E-03     23.3857E-03
             292             907     30.2339E-03     35.1926E-03
             291             907     30.2339E-03     35.1926E-03
             308             907     30.2339E-03     35.1926E-03
             307             907     30.2339E-03     35.1926E-03
             308             908     41.4416E-03     47.3353E-03
             309             908     41.4416E-03     47.3353E-03
             293             908     41.4416E-03     47.3353E-03
             292             908     41.4416E-03     47.3353E-03
             294             909     53.4290E-03     59.5981E-03
             310             909     53.4290E-03     59.5981E-03
             309             909     53.4290E-03     59.5981E-03
             293             909     53.4290E-03     59.5981E-03
             311             910     65.7122E-03     71.9957E-03
             295             910     65.7122E-03     71.9957E-03
             294             910     65.7122E-03     71.9957E-03
             310             910     65.7122E-03     71.9957E-03
             296             911     78.1741E-03     84.5152E-03
             312             911     78.1741E-03     84.5152E-03
             311             911     78.1741E-03     84.5152E-03
             295             911     78.1741E-03     84.5152E-03
             296             912     90.7304E-03     97.1174E-03
             312             912     90.7304E-03     97.1174E-03
             313             912     90.7304E-03     97.1174E-03
             297             912     90.7304E-03     97.1174E-03
             297             913     103.407E-03     109.823E-03
             314             913     103.407E-03     109.823E-03
             298             913     103.407E-03     109.823E-03
             313             913     103.407E-03     109.823E-03
             314             914     116.172E-03     122.705E-03
             298             914     116.172E-03     122.705E-03
             299             914     116.172E-03     122.705E-03
             315             914     116.172E-03     122.705E-03
             299             915     129.286E-03     135.911E-03
             315             915     129.286E-03     135.911E-03
             316             915     129.286E-03     135.911E-03
             300             915     129.286E-03     135.911E-03
             316             916     143.045E-03     149.907E-03
             317             916     143.045E-03     149.907E-03
             301             916     143.045E-03     149.907E-03
             300             916     143.045E-03     149.907E-03
             302             917     158.568E-03     165.389E-03
             301             917     158.568E-03     165.389E-03
             317             917     158.568E-03     165.389E-03
             318             917     158.568E-03     165.389E-03
             302             918     179.725E-03     184.970E-03
             318             918     179.725E-03     184.970E-03
             303             918     179.725E-03     184.970E-03
             319             918     179.725E-03     184.970E-03
             320             919     203.343E-03     205.725E-03
             303             919     203.343E-03     205.725E-03
             319             919     203.343E-03     205.725E-03
             304             919     203.343E-03     205.725E-03
             306             920     11.8201E-03     10.6192E-03
             322             920     11.8201E-03     10.6192E-03
             305             920     11.8201E-03     10.6192E-03
             321             920     11.8201E-03     10.6192E-03
             307             921     15.5964E-03     20.8352E-03
             323             921     15.5964E-03     20.8352E-03
             322             921     15.5964E-03     20.8352E-03
             306             921     15.5964E-03     20.8352E-03
             324             922     26.1814E-03     33.7590E-03
             323             922     26.1814E-03     33.7590E-03
             307             922     26.1814E-03     33.7590E-03
             308             922     26.1814E-03     33.7590E-03
             308             923     38.1568E-03     46.3870E-03
             325             923     38.1568E-03     46.3870E-03
             309             923     38.1568E-03     46.3870E-03
             324             923     38.1568E-03     46.3870E-03
             310             924     50.3750E-03     58.9194E-03
             325             924     50.3750E-03     58.9194E-03
             326             924     50.3750E-03     58.9194E-03
             309             924     50.3750E-03     58.9194E-03
             326             925     62.6941E-03     71.3180E-03
             311             925     62.6941E-03     71.3180E-03
             310             925     62.6941E-03     71.3180E-03
             327             925     62.6941E-03     71.3180E-03
             311             926     75.0562E-03     83.6718E-03
             327             926     75.0562E-03     83.6718E-03
             328             926     75.0562E-03     83.6718E-03
             312             926     75.0562E-03     83.6718E-03
             312             927     87.4137E-03     95.9878E-03
             328             927     87.4137E-03     95.9878E-03
             329             927     87.4137E-03     95.9878E-03
             313             927     87.4137E-03     95.9878E-03
             329             928     99.7572E-03     108.252E-03
             330             928     99.7572E-03     108.252E-03
             313             928     99.7572E-03     108.252E-03
             314             928     99.7572E-03     108.252E-03
             314             929     112.220E-03     120.570E-03
             330             929     112.220E-03     120.570E-03
             315             929     112.220E-03     120.570E-03
             331             929     112.220E-03     120.570E-03
             316             930     124.866E-03     133.028E-03
             315             930     124.866E-03     133.028E-03
             331             930     124.866E-03     133.028E-03
             332             930     124.866E-03     133.028E-03
             332             931     138.485E-03     146.325E-03
             316             931     138.485E-03     146.325E-03
             333             931     138.485E-03     146.325E-03
             317             931     138.485E-03     146.325E-03
             317             932     153.653E-03     161.193E-03
             333             932     153.653E-03     161.193E-03
             334             932     153.653E-03     161.193E-03
             318             932     153.653E-03     161.193E-03
             318             933     174.113E-03     181.487E-03
             334             933     174.113E-03     181.487E-03
             335             933     174.113E-03     181.487E-03
             319             933     174.113E-03     181.487E-03
             319             934     206.563E-03     212.082E-03
             335             934     206.563E-03     212.082E-03
             320             934     206.563E-03     212.082E-03
             336             934     206.563E-03     212.082E-03
             338             935     28.0636E-03     32.0871E-03
             337             935     28.0636E-03     32.0871E-03
             321             935     28.0636E-03     32.0871E-03
             322             935     28.0636E-03     32.0871E-03
             338             936     34.7549E-03     38.5002E-03
             339             936     34.7549E-03     38.5002E-03
             323             936     34.7549E-03     38.5002E-03
             322             936     34.7549E-03     38.5002E-03
             324             937     45.6235E-03     49.5503E-03
             340             937     45.6235E-03     49.5503E-03
             339             937     45.6235E-03     49.5503E-03
             323             937     45.6235E-03     49.5503E-03
             340             938     57.7763E-03     61.9315E-03
             324             938     57.7763E-03     61.9315E-03
             325             938     57.7763E-03     61.9315E-03
             341             938     57.7763E-03     61.9315E-03
             325             939     70.6184E-03     74.8227E-03
             326             939     70.6184E-03     74.8227E-03
             341             939     70.6184E-03     74.8227E-03
             342             939     70.6184E-03     74.8227E-03
             342             940     83.8613E-03     88.0452E-03
             343             940     83.8613E-03     88.0452E-03
             326             940     83.8613E-03     88.0452E-03
             327             940     83.8613E-03     88.0452E-03
             343             941     97.3371E-03     101.435E-03
             328             941     97.3371E-03     101.435E-03
             327             941     97.3371E-03     101.435E-03
             344             941     97.3371E-03     101.435E-03
             329             942     110.839E-03     114.837E-03
             345             942     110.839E-03     114.837E-03
             344             942     110.839E-03     114.837E-03
             328             942     110.839E-03     114.837E-03
             346             943     124.347E-03     128.127E-03
             329             943     124.347E-03     128.127E-03
             330             943     124.347E-03     128.127E-03
             345             943     124.347E-03     128.127E-03
             347             944     137.669E-03     141.211E-03
             330             944     137.669E-03     141.211E-03
             346             944     137.669E-03     141.211E-03
             331             944     137.669E-03     141.211E-03
             332             945     150.924E-03     153.873E-03
             347             945     150.924E-03     153.873E-03
             331             945     150.924E-03     153.873E-03
             348             945     150.924E-03     153.873E-03
             333             946     163.915E-03     166.204E-03
             348             946     163.915E-03     166.204E-03
             332             946     163.915E-03     166.204E-03
             349             946     163.915E-03     166.204E-03
             334             947     177.122E-03     178.385E-03
             350             947     177.122E-03     178.385E-03
             349             947     177.122E-03     178.385E-03
             333             947     177.122E-03     178.385E-03
             351             948     190.465E-03     191.068E-03
             350             948     190.465E-03     191.068E-03
             335             948     190.465E-03     191.068E-03
             334             948     190.465E-03     191.068E-03
             352             949     207.719E-03     211.118E-03
             335             949     207.719E-03     211.118E-03
             351             949     207.719E-03     211.118E-03
             336             949     207.719E-03     211.118E-03
             337             950     44.3579E-03     50.3814E-03
             353             950     44.3579E-03     50.3814E-03
             338             950     44.3579E-03     50.3814E-03
             354             950     44.3579E-03     50.3814E-03
             339             951     51.5861E-03     53.7254E-03
             338             951     51.5861E-03     53.7254E-03
             354             951     51.5861E-03     53.7254E-03
             355             951     51.5861E-03     53.7254E-03
             339             952     62.6630E-03     62.7432E-03
             340             952     62.6630E-03     62.7432E-03
             356             952     62.6630E-03     62.7432E-03
             355             952     62.6630E-03     62.7432E-03
             340             953     75.5216E-03     75.1007E-03
             357             953     75.5216E-03     75.1007E-03
             341             953     75.5216E-03     75.1007E-03
             356             953     75.5216E-03     75.1007E-03
             341             954     89.5816E-03     89.0499E-03
             358             954     89.5816E-03     89.0499E-03
             357             954     89.5816E-03     89.0499E-03
             342             954     89.5816E-03     89.0499E-03
             359             955     104.475E-03     103.859E-03
             358             955     104.475E-03     103.859E-03
             342             955     104.475E-03     103.859E-03
             343             955     104.475E-03     103.859E-03
             344             956     119.792E-03     119.142E-03
             343             956     119.792E-03     119.142E-03
             360             956     119.792E-03     119.142E-03
             359             956     119.792E-03     119.142E-03
             360             957     135.376E-03     134.619E-03
             344             957     135.376E-03     134.619E-03
             361             957     135.376E-03     134.619E-03
             345             957     135.376E-03     134.619E-03
             362             958     150.980E-03     150.136E-03
             345             958     150.980E-03     150.136E-03
             346             958     150.980E-03     150.136E-03
             361             958     150.980E-03     150.136E-03
             347             959     166.518E-03     165.404E-03
             363             959     166.518E-03     165.404E-03
             362             959     166.518E-03     165.404E-03
             346             959     166.518E-03     165.404E-03
             347             960     181.616E-03     180.226E-03
             363             960     181.616E-03     180.226E-03
             348             960     181.616E-03     180.226E-03
             364             960     181.616E-03     180.226E-03
             348             961     195.805E-03     193.983E-03
             364             961     195.805E-03     193.983E-03
             349             961     195.805E-03     193.983E-03
             365             961     195.805E-03     193.983E-03
             365             962     208.359E-03     205.989E-03
             349             962     208.359E-03     205.989E-03
             366             962     208.359E-03     205.989E-03
             350             962     208.359E-03     205.989E-03
             350             963     217.463E-03     215.278E-03
             351             963     217.463E-03     215.278E-03
             367             963     217.463E-03     215.278E-03
             366             963     217.463E-03     215.278E-03
             367             964     221.760E-03     218.931E-03
             368             964     221.760E-03     218.931E-03
             352             964     221.760E-03     218.931E-03
             351             964     221.760E-03     218.931E-03
             353             965     38.2167E-03     39.9772E-03
             369             965     38.2167E-03     39.9772E-03
             370             965     38.2167E-03     39.9772E-03
             354             965     38.2167E-03     39.9772E-03
             370             966     43.2227E-03     46.9562E-03
             355             966     43.2227E-03     46.9562E-03
             354             966     43.2227E-03     46.9562E-03
             371             966     43.2227E-03     46.9562E-03
             356             967     54.9187E-03     57.1135E-03
             355             967     54.9187E-03     57.1135E-03
             371             967     54.9187E-03     57.1135E-03
             372             967     54.9187E-03     57.1135E-03
             356             968     69.2159E-03     70.6644E-03
             373             968     69.2159E-03     70.6644E-03
             372             968     69.2159E-03     70.6644E-03
             357             968     69.2159E-03     70.6644E-03
             373             969     84.6324E-03     85.8767E-03
             357             969     84.6324E-03     85.8767E-03
             358             969     84.6324E-03     85.8767E-03
             374             969     84.6324E-03     85.8767E-03
             358             970     100.732E-03     101.956E-03
             359             970     100.732E-03     101.956E-03
             375             970     100.732E-03     101.956E-03
             374             970     100.732E-03     101.956E-03
             375             971     117.248E-03     118.508E-03
             359             971     117.248E-03     118.508E-03
             376             971     117.248E-03     118.508E-03
             360             971     117.248E-03     118.508E-03
             361             972     134.064E-03     135.369E-03
             376             972     134.064E-03     135.369E-03
             377             972     134.064E-03     135.369E-03
             360             972     134.064E-03     135.369E-03
             361             973     151.125E-03     152.438E-03
             377             973     151.125E-03     152.438E-03
             362             973     151.125E-03     152.438E-03
             378             973     151.125E-03     152.438E-03
             362             974     168.254E-03     169.673E-03
             363             974     168.254E-03     169.673E-03
             379             974     168.254E-03     169.673E-03
             378             974     168.254E-03     169.673E-03
             379             975     185.450E-03     186.937E-03
             363             975     185.450E-03     186.937E-03
             380             975     185.450E-03     186.937E-03
             364             975     185.450E-03     186.937E-03
             365             976     202.115E-03     203.995E-03
             364             976     202.115E-03     203.995E-03
             380             976     202.115E-03     203.995E-03
             381             976     202.115E-03     203.995E-03
             382             977     217.204E-03     219.954E-03
             365             977     217.204E-03     219.954E-03
             366             977     217.204E-03     219.954E-03
             381             977     217.204E-03     219.954E-03
             383             978     229.494E-03     232.974E-03
             367             978     229.494E-03     232.974E-03
             366             978     229.494E-03     232.974E-03
             382             978     229.494E-03     232.974E-03
             367             979     238.664E-03     242.036E-03
             368             979     238.664E-03     242.036E-03
             383             979     238.664E-03     242.036E-03
             384             979     238.664E-03     242.036E-03
             370             980     30.1349E-03     29.1037E-03
             369             980     30.1349E-03     29.1037E-03
             386             980     30.1349E-03     29.1037E-03
             385             980     30.1349E-03     29.1037E-03
             387             981     36.3072E-03     39.3168E-03
             371             981     36.3072E-03     39.3168E-03
             386             981     36.3072E-03     39.3168E-03
             370             981     36.3072E-03     39.3168E-03
             387             982     48.4528E-03     52.4242E-03
             372             982     48.4528E-03     52.4242E-03
             371             982     48.4528E-03     52.4242E-03
             388             982     48.4528E-03     52.4242E-03
             372             983     63.9467E-03     67.3514E-03
             388             983     63.9467E-03     67.3514E-03
             389             983     63.9467E-03     67.3514E-03
             373             983     63.9467E-03     67.3514E-03
             389             984     80.4461E-03     83.7135E-03
             374             984     80.4461E-03     83.7135E-03
             390             984     80.4461E-03     83.7135E-03
             373             984     80.4461E-03     83.7135E-03
             374             985     97.4270E-03     100.708E-03
             390             985     97.4270E-03     100.708E-03
             391             985     97.4270E-03     100.708E-03
             375             985     97.4270E-03     100.708E-03
             391             986     114.790E-03     118.132E-03
             392             986     114.790E-03     118.132E-03
             375             986     114.790E-03     118.132E-03
             376             986     114.790E-03     118.132E-03
             392             987     132.412E-03     135.860E-03
             393             987     132.412E-03     135.860E-03
             377             987     132.412E-03     135.860E-03
             376             987     132.412E-03     135.860E-03
             378             988     150.277E-03     153.879E-03
             393             988     150.277E-03     153.879E-03
             394             988     150.277E-03     153.879E-03
             377             988     150.277E-03     153.879E-03
             394             989     168.411E-03     172.257E-03
             378             989     168.411E-03     172.257E-03
             395             989     168.411E-03     172.257E-03
             379             989     168.411E-03     172.257E-03
             395             990     186.659E-03     190.972E-03
             396             990     186.659E-03     190.972E-03
             380             990     186.659E-03     190.972E-03
             379             990     186.659E-03     190.972E-03
             380             991     205.240E-03     210.118E-03
             396             991     205.240E-03     210.118E-03
             381             991     205.240E-03     210.118E-03
             397             991     205.240E-03     210.118E-03
             382             992     223.270E-03     229.023E-03
             381             992     223.270E-03     229.023E-03
             397             992     223.270E-03     229.023E-03
             398             992     223.270E-03     229.023E-03
             383             993     239.208E-03     245.781E-03
             382             993     239.208E-03     245.781E-03
             399             993     239.208E-03     245.781E-03
             398             993     239.208E-03     245.781E-03
             384             994     254.050E-03     258.836E-03
             400             994     254.050E-03     258.836E-03
             399             994     254.050E-03     258.836E-03
             383             994     254.050E-03     258.836E-03
             401             995     21.8584E-03     20.7049E-03
             386             995     21.8584E-03     20.7049E-03
             385             995     21.8584E-03     20.7049E-03
             402             995     21.8584E-03     20.7049E-03
             386             996     29.0939E-03     32.6558E-03
             403             996     29.0939E-03     32.6558E-03
             402             996     29.0939E-03     32.6558E-03
             387             996     29.0939E-03     32.6558E-03
             388             997     43.2394E-03     48.3671E-03
             387             997     43.2394E-03     48.3671E-03
             404             997     43.2394E-03     48.3671E-03
             403             997     43.2394E-03     48.3671E-03
             388             998     59.5759E-03     65.0000E-03
             404             998     59.5759E-03     65.0000E-03
             405             998     59.5759E-03     65.0000E-03
             389             998     59.5759E-03     65.0000E-03
             390             999     76.7383E-03     82.1584E-03
             406             999     76.7383E-03     82.1584E-03
             389             999     76.7383E-03     82.1584E-03
             405             999     76.7383E-03     82.1584E-03
             406            1000     94.2839E-03     99.7411E-03
             391            1000     94.2839E-03     99.7411E-03
             390            1000     94.2839E-03     99.7411E-03
             407            1000     94.2839E-03     99.7411E-03
             408            1001     112.026E-03     117.559E-03
             392            1001     112.026E-03     117.559E-03
             407            1001     112.026E-03     117.559E-03
             391            1001     112.026E-03     117.559E-03
             408            1002     129.976E-03     135.598E-03
             392            1002     129.976E-03     135.598E-03
             393            1002     129.976E-03     135.598E-03
             409            1002     129.976E-03     135.598E-03
             394            1003     148.090E-03     153.890E-03
             393            1003     148.090E-03     153.890E-03
             409            1003     148.090E-03     153.890E-03
             410            1003     148.090E-03     153.890E-03
             395            1004     166.438E-03     172.481E-03
             410            1004     166.438E-03     172.481E-03
             411            1004     166.438E-03     172.481E-03
             394            1004     166.438E-03     172.481E-03
             395            1005     185.134E-03     191.658E-03
             412            1005     185.134E-03     191.658E-03
             396            1005     185.134E-03     191.658E-03
             411            1005     185.134E-03     191.658E-03
             397            1006     204.280E-03     211.413E-03
             413            1006     204.280E-03     211.413E-03
             412            1006     204.280E-03     211.413E-03
             396            1006     204.280E-03     211.413E-03
             397            1007     225.224E-03     232.452E-03
             413            1007     225.224E-03     232.452E-03
             414            1007     225.224E-03     232.452E-03
             398            1007     225.224E-03     232.452E-03
             415            1008     246.921E-03     253.709E-03
             398            1008     246.921E-03     253.709E-03
             399            1008     246.921E-03     253.709E-03
             414            1008     246.921E-03     253.709E-03
             399            1009     266.488E-03     272.635E-03
             416            1009     266.488E-03     272.635E-03
             400            1009     266.488E-03     272.635E-03
             415            1009     266.488E-03     272.635E-03
             402            1010     15.6374E-03     13.2751E-03
             401            1010     15.6374E-03     13.2751E-03
             417            1010     15.6374E-03     13.2751E-03
             418            1010     15.6374E-03     13.2751E-03
             418            1011     23.1997E-03     28.0442E-03
             402            1011     23.1997E-03     28.0442E-03
             403            1011     23.1997E-03     28.0442E-03
             419            1011     23.1997E-03     28.0442E-03
             420            1012     38.9909E-03     45.7486E-03
             419            1012     38.9909E-03     45.7486E-03
             403            1012     38.9909E-03     45.7486E-03
             404            1012     38.9909E-03     45.7486E-03
             404            1013     55.9841E-03     63.5191E-03
             405            1013     55.9841E-03     63.5191E-03
             421            1013     55.9841E-03     63.5191E-03
             420            1013     55.9841E-03     63.5191E-03
             406            1014     73.5038E-03     81.1835E-03
             421            1014     73.5038E-03     81.1835E-03
             422            1014     73.5038E-03     81.1835E-03
             405            1014     73.5038E-03     81.1835E-03
             422            1015     91.1722E-03     98.9198E-03
             423            1015     91.1722E-03     98.9198E-03
             407            1015     91.1722E-03     98.9198E-03
             406            1015     91.1722E-03     98.9198E-03
             408            1016     108.933E-03     116.717E-03
             407            1016     108.933E-03     116.717E-03
             424            1016     108.933E-03     116.717E-03
             423            1016     108.933E-03     116.717E-03
             425            1017     126.747E-03     134.570E-03
             409            1017     126.747E-03     134.570E-03
             408            1017     126.747E-03     134.570E-03
             424            1017     126.747E-03     134.570E-03
             409            1018     144.669E-03     152.512E-03
             410            1018     144.669E-03     152.512E-03
             425            1018     144.669E-03     152.512E-03
             426            1018     144.669E-03     152.512E-03
             411            1019     162.670E-03     170.658E-03
             426            1019     162.670E-03     170.658E-03
             427            1019     162.670E-03     170.658E-03
             410            1019     162.670E-03     170.658E-03
             411            1020     181.075E-03     189.178E-03
             427            1020     181.075E-03     189.178E-03
             428            1020     181.075E-03     189.178E-03
             412            1020     181.075E-03     189.178E-03
             428            1021     200.216E-03     208.643E-03
             429            1021     200.216E-03     208.643E-03
             413            1021     200.216E-03     208.643E-03
             412            1021     200.216E-03     208.643E-03
             413            1022     221.248E-03     229.768E-03
             429            1022     221.248E-03     229.768E-03
             414            1022     221.248E-03     229.768E-03
             430            1022     221.248E-03     229.768E-03
             415            1023     248.575E-03     255.339E-03
             414            1023     248.575E-03     255.339E-03
             430            1023     248.575E-03     255.339E-03
             431            1023     248.575E-03     255.339E-03
             416            1024     277.922E-03     281.320E-03
             415            1024     277.922E-03     281.320E-03
             432            1024     277.922E-03     281.320E-03
             431            1024     277.922E-03     281.320E-03
             418            1025     12.0781E-03     11.9174E-03
             433            1025     12.0781E-03     11.9174E-03
             434            1025     12.0781E-03     11.9174E-03
             417            1025     12.0781E-03     11.9174E-03
             419            1026     19.3984E-03     26.4522E-03
             434            1026     19.3984E-03     26.4522E-03
             435            1026     19.3984E-03     26.4522E-03
             418            1026     19.3984E-03     26.4522E-03
             419            1027     36.0994E-03     45.2946E-03
             420            1027     36.0994E-03     45.2946E-03
             435            1027     36.0994E-03     45.2946E-03
             436            1027     36.0994E-03     45.2946E-03
             437            1028     53.4517E-03     63.2369E-03
             420            1028     53.4517E-03     63.2369E-03
             421            1028     53.4517E-03     63.2369E-03
             436            1028     53.4517E-03     63.2369E-03
             437            1029     70.8767E-03     80.9609E-03
             422            1029     70.8767E-03     80.9609E-03
             438            1029     70.8767E-03     80.9609E-03
             421            1029     70.8767E-03     80.9609E-03
             422            1030     88.3091E-03     98.4475E-03
             438            1030     88.3091E-03     98.4475E-03
             423            1030     88.3091E-03     98.4475E-03
             439            1030     88.3091E-03     98.4475E-03
             423            1031     105.730E-03     115.840E-03
             440            1031     105.730E-03     115.840E-03
             439            1031     105.730E-03     115.840E-03
             424            1031     105.730E-03     115.840E-03
             425            1032     123.103E-03     133.139E-03
             440            1032     123.103E-03     133.139E-03
             424            1032     123.103E-03     133.139E-03
             441            1032     123.103E-03     133.139E-03
             441            1033     140.416E-03     150.340E-03
             426            1033     140.416E-03     150.340E-03
             425            1033     140.416E-03     150.340E-03
             442            1033     140.416E-03     150.340E-03
             427            1034     157.836E-03     167.543E-03
             426            1034     157.836E-03     167.543E-03
             443            1034     157.836E-03     167.543E-03
             442            1034     157.836E-03     167.543E-03
             428            1035     175.414E-03     184.849E-03
             443            1035     175.414E-03     184.849E-03
             444            1035     175.414E-03     184.849E-03
             427            1035     175.414E-03     184.849E-03
             429            1036     194.009E-03     202.995E-03
             444            1036     194.009E-03     202.995E-03
             445            1036     194.009E-03     202.995E-03
             428            1036     194.009E-03     202.995E-03
             445            1037     214.211E-03     222.752E-03
             446            1037     214.211E-03     222.752E-03
             430            1037     214.211E-03     222.752E-03
             429            1037     214.211E-03     222.752E-03
             430            1038     240.079E-03     248.446E-03
             446            1038     240.079E-03     248.446E-03
             431            1038     240.079E-03     248.446E-03
             447            1038     240.079E-03     248.446E-03
             431            1039     278.989E-03     285.030E-03
             448            1039     278.989E-03     285.030E-03
             447            1039     278.989E-03     285.030E-03
             432            1039     278.989E-03     285.030E-03
             434            1040     29.3406E-03     35.2869E-03
             449            1040     29.3406E-03     35.2869E-03
             450            1040     29.3406E-03     35.2869E-03
             433            1040     29.3406E-03     35.2869E-03
             435            1041     39.6933E-03     44.3290E-03
             450            1041     39.6933E-03     44.3290E-03
             451            1041     39.6933E-03     44.3290E-03
             434            1041     39.6933E-03     44.3290E-03
             436            1042     55.5471E-03     60.2891E-03
             451            1042     55.5471E-03     60.2891E-03
             452            1042     55.5471E-03     60.2891E-03
             435            1042     55.5471E-03     60.2891E-03
             436            1043     72.6484E-03     77.7427E-03
             452            1043     72.6484E-03     77.7427E-03
             453            1043     72.6484E-03     77.7427E-03
             437            1043     72.6484E-03     77.7427E-03
             453            1044     90.5052E-03     95.6581E-03
             454            1044     90.5052E-03     95.6581E-03
             437            1044     90.5052E-03     95.6581E-03
             438            1044     90.5052E-03     95.6581E-03
             454            1045     108.811E-03     113.964E-03
             455            1045     108.811E-03     113.964E-03
             438            1045     108.811E-03     113.964E-03
             439            1045     108.811E-03     113.964E-03
             456            1046     127.295E-03     132.347E-03
             440            1046     127.295E-03     132.347E-03
             439            1046     127.295E-03     132.347E-03
             455            1046     127.295E-03     132.347E-03
             456            1047     145.790E-03     150.791E-03
             441            1047     145.790E-03     150.791E-03
             457            1047     145.790E-03     150.791E-03
             440            1047     145.790E-03     150.791E-03
             458            1048     164.247E-03     169.044E-03
             441            1048     164.247E-03     169.044E-03
             457            1048     164.247E-03     169.044E-03
             442            1048     164.247E-03     169.044E-03
             443            1049     182.521E-03     187.099E-03
             458            1049     182.521E-03     187.099E-03
             459            1049     182.521E-03     187.099E-03
             442            1049     182.521E-03     187.099E-03
             460            1050     200.784E-03     204.765E-03
             443            1050     200.784E-03     204.765E-03
             444            1050     200.784E-03     204.765E-03
             459            1050     200.784E-03     204.765E-03
             461            1051     218.678E-03     221.927E-03
             444            1051     218.678E-03     221.927E-03
             460            1051     218.678E-03     221.927E-03
             445            1051     218.678E-03     221.927E-03
             445            1052     237.047E-03     238.993E-03
             446            1052     237.047E-03     238.993E-03
             461            1052     237.047E-03     238.993E-03
             462            1052     237.047E-03     238.993E-03
             447            1053     255.136E-03     256.409E-03
             462            1053     255.136E-03     256.409E-03
             463            1053     255.136E-03     256.409E-03
             446            1053     255.136E-03     256.409E-03
             463            1054     278.144E-03     283.022E-03
             464            1054     278.144E-03     283.022E-03
             447            1054     278.144E-03     283.022E-03
             448            1054     278.144E-03     283.022E-03
             465            1055     45.4643E-03     51.7510E-03
             466            1055     45.4643E-03     51.7510E-03
             449            1055     45.4643E-03     51.7510E-03
             450            1055     45.4643E-03     51.7510E-03
             450            1056     55.3195E-03     57.5607E-03
             466            1056     55.3195E-03     57.5607E-03
             467            1056     55.3195E-03     57.5607E-03
             451            1056     55.3195E-03     57.5607E-03
             451            1057     70.8544E-03     71.3997E-03
             468            1057     70.8544E-03     71.3997E-03
             452            1057     70.8544E-03     71.3997E-03
             467            1057     70.8544E-03     71.3997E-03
             468            1058     88.7024E-03     88.9416E-03
             452            1058     88.7024E-03     88.9416E-03
             453            1058     88.7024E-03     88.9416E-03
             469            1058     88.7024E-03     88.9416E-03
             470            1059     107.979E-03     108.142E-03
             453            1059     107.979E-03     108.142E-03
             454            1059     107.979E-03     108.142E-03
             469            1059     107.979E-03     108.142E-03
             470            1060     128.032E-03     128.196E-03
             454            1060     128.032E-03     128.196E-03
             455            1060     128.032E-03     128.196E-03
             471            1060     128.032E-03     128.196E-03
             455            1061     148.515E-03     148.655E-03
             456            1061     148.515E-03     148.655E-03
             472            1061     148.515E-03     148.655E-03
             471            1061     148.515E-03     148.655E-03
             457            1062     169.186E-03     169.337E-03
             473            1062     169.186E-03     169.337E-03
             456            1062     169.186E-03     169.337E-03
             472            1062     169.186E-03     169.337E-03
             458            1063     189.958E-03     190.024E-03
             474            1063     189.958E-03     190.024E-03
             457            1063     189.958E-03     190.024E-03
             473            1063     189.958E-03     190.024E-03
             474            1064     210.609E-03     210.623E-03
             475            1064     210.609E-03     210.623E-03
             458            1064     210.609E-03     210.623E-03
             459            1064     210.609E-03     210.623E-03
             475            1065     231.095E-03     230.812E-03
             476            1065     231.095E-03     230.812E-03
             460            1065     231.095E-03     230.812E-03
             459            1065     231.095E-03     230.812E-03
             460            1066     250.954E-03     250.329E-03
             476            1066     250.954E-03     250.329E-03
             477            1066     250.954E-03     250.329E-03
             461            1066     250.954E-03     250.329E-03
             477            1067     269.005E-03     268.147E-03
             462            1067     269.005E-03     268.147E-03
             461            1067     269.005E-03     268.147E-03
             478            1067     269.005E-03     268.147E-03
             462            1068     284.330E-03     283.161E-03
             478            1068     284.330E-03     283.161E-03
             479            1068     284.330E-03     283.161E-03
             463            1068     284.330E-03     283.161E-03
             464            1069     294.290E-03     292.677E-03
             479            1069     294.290E-03     292.677E-03
             480            1069     294.290E-03     292.677E-03
             463            1069     294.290E-03     292.677E-03
             481            1070     37.4585E-03     38.7512E-03
             466            1070     37.4585E-03     38.7512E-03
             465            1070     37.4585E-03     38.7512E-03
             482            1070     37.4585E-03     38.7512E-03
             482            1071     44.9352E-03     49.4263E-03
             483            1071     44.9352E-03     49.4263E-03
             467            1071     44.9352E-03     49.4263E-03
             466            1071     44.9352E-03     49.4263E-03
             484            1072     61.5773E-03     64.8346E-03
             483            1072     61.5773E-03     64.8346E-03
             467            1072     61.5773E-03     64.8346E-03
             468            1072     61.5773E-03     64.8346E-03
             485            1073     81.3137E-03     83.9900E-03
             484            1073     81.3137E-03     83.9900E-03
             469            1073     81.3137E-03     83.9900E-03
             468            1073     81.3137E-03     83.9900E-03
             469            1074     102.006E-03     104.686E-03
             485            1074     102.006E-03     104.686E-03
             470            1074     102.006E-03     104.686E-03
             486            1074     102.006E-03     104.686E-03
             487            1075     123.294E-03     126.043E-03
             470            1075     123.294E-03     126.043E-03
             486            1075     123.294E-03     126.043E-03
             471            1075     123.294E-03     126.043E-03
             471            1076     144.930E-03     147.781E-03
             487            1076     144.930E-03     147.781E-03
             488            1076     144.930E-03     147.781E-03
             472            1076     144.930E-03     147.781E-03
             472            1077     166.854E-03     169.741E-03
             488            1077     166.854E-03     169.741E-03
             489            1077     166.854E-03     169.741E-03
             473            1077     166.854E-03     169.741E-03
             473            1078     188.959E-03     191.915E-03
             490            1078     188.959E-03     191.915E-03
             489            1078     188.959E-03     191.915E-03
             474            1078     188.959E-03     191.915E-03
             475            1079     211.319E-03     214.329E-03
             490            1079     211.319E-03     214.329E-03
             491            1079     211.319E-03     214.329E-03
             474            1079     211.319E-03     214.329E-03
             475            1080     233.734E-03     236.984E-03
             476            1080     233.734E-03     236.984E-03
             492            1080     233.734E-03     236.984E-03
             491            1080     233.734E-03     236.984E-03
             477            1081     256.451E-03     260.008E-03
             492            1081     256.451E-03     260.008E-03
             476            1081     256.451E-03     260.008E-03
             493            1081     256.451E-03     260.008E-03
             477            1082     278.413E-03     282.886E-03
             494            1082     278.413E-03     282.886E-03
             493            1082     278.413E-03     282.886E-03
             478            1082     278.413E-03     282.886E-03
             495            1083     297.678E-03     303.664E-03
             478            1083     297.678E-03     303.664E-03
             479            1083     297.678E-03     303.664E-03
             494            1083     297.678E-03     303.664E-03
             479            1084     313.960E-03     318.150E-03
             495            1084     313.960E-03     318.150E-03
             480            1084     313.960E-03     318.150E-03
             496            1084     313.960E-03     318.150E-03
             481            1085     26.9347E-03     26.1919E-03
             498            1085     26.9347E-03     26.1919E-03
             482            1085     26.9347E-03     26.1919E-03
             497            1085     26.9347E-03     26.1919E-03
             499            1086     36.2724E-03     41.3027E-03
             483            1086     36.2724E-03     41.3027E-03
             498            1086     36.2724E-03     41.3027E-03
             482            1086     36.2724E-03     41.3027E-03
             483            1087     54.3598E-03     60.1266E-03
             484            1087     54.3598E-03     60.1266E-03
             500            1087     54.3598E-03     60.1266E-03
             499            1087     54.3598E-03     60.1266E-03
             485            1088     75.4409E-03     80.9056E-03
             501            1088     75.4409E-03     80.9056E-03
             484            1088     75.4409E-03     80.9056E-03
             500            1088     75.4409E-03     80.9056E-03
             486            1089     97.1652E-03     102.676E-03
             501            1089     97.1652E-03     102.676E-03
             502            1089     97.1652E-03     102.676E-03
             485            1089     97.1652E-03     102.676E-03
             486            1090     119.273E-03     124.881E-03
             503            1090     119.273E-03     124.881E-03
             502            1090     119.273E-03     124.881E-03
             487            1090     119.273E-03     124.881E-03
             503            1091     141.645E-03     147.332E-03
             504            1091     141.645E-03     147.332E-03
             488            1091     141.645E-03     147.332E-03
             487            1091     141.645E-03     147.332E-03
             488            1092     164.218E-03     169.982E-03
             505            1092     164.218E-03     169.982E-03
             489            1092     164.218E-03     169.982E-03
             504            1092     164.218E-03     169.982E-03
             490            1093     187.014E-03     192.861E-03
             505            1093     187.014E-03     192.861E-03
             506            1093     187.014E-03     192.861E-03
             489            1093     187.014E-03     192.861E-03
             490            1094     210.012E-03     216.040E-03
             506            1094     210.012E-03     216.040E-03
             491            1094     210.012E-03     216.040E-03
             507            1094     210.012E-03     216.040E-03
             491            1095     233.382E-03     239.807E-03
             492            1095     233.382E-03     239.807E-03
             508            1095     233.382E-03     239.807E-03
             507            1095     233.382E-03     239.807E-03
             508            1096     256.949E-03     264.208E-03
             492            1096     256.949E-03     264.208E-03
             493            1096     256.949E-03     264.208E-03
             509            1096     256.949E-03     264.208E-03
             493            1097     282.215E-03     290.002E-03
             509            1097     282.215E-03     290.002E-03
             494            1097     282.215E-03     290.002E-03
             510            1097     282.215E-03     290.002E-03
             495            1098     307.225E-03     315.322E-03
             511            1098     307.225E-03     315.322E-03
             510            1098     307.225E-03     315.322E-03
             494            1098     307.225E-03     315.322E-03
             511            1099     328.377E-03     337.082E-03
             512            1099     328.377E-03     337.082E-03
             496            1099     328.377E-03     337.082E-03
             495            1099     328.377E-03     337.082E-03
             514            1100     18.7142E-03     17.1341E-03
             498            1100     18.7142E-03     17.1341E-03
             497            1100     18.7142E-03     17.1341E-03
             513            1100     18.7142E-03     17.1341E-03
             499            1101     29.0342E-03     35.1620E-03
             514            1101     29.0342E-03     35.1620E-03
             515            1101     29.0342E-03     35.1620E-03
             498            1101     29.0342E-03     35.1620E-03
             499            1102     49.3070E-03     57.4568E-03
             515            1102     49.3070E-03     57.4568E-03
             516            1102     49.3070E-03     57.4568E-03
             500            1102     49.3070E-03     57.4568E-03
             501            1103     71.0309E-03     79.5371E-03
             516            1103     71.0309E-03     79.5371E-03
             517            1103     71.0309E-03     79.5371E-03
             500            1103     71.0309E-03     79.5371E-03
             501            1104     93.3397E-03     101.896E-03
             517            1104     93.3397E-03     101.896E-03
             518            1104     93.3397E-03     101.896E-03
             502            1104     93.3397E-03     101.896E-03
             502            1105     115.782E-03     124.407E-03
             519            1105     115.782E-03     124.407E-03
             518            1105     115.782E-03     124.407E-03
             503            1105     115.782E-03     124.407E-03
             503            1106     138.332E-03     147.001E-03
             519            1106     138.332E-03     147.001E-03
             504            1106     138.332E-03     147.001E-03
             520            1106     138.332E-03     147.001E-03
             504            1107     160.973E-03     169.664E-03
             521            1107     160.973E-03     169.664E-03
             505            1107     160.973E-03     169.664E-03
             520            1107     160.973E-03     169.664E-03
             506            1108     183.711E-03     192.425E-03
             505            1108     183.711E-03     192.425E-03
             521            1108     183.711E-03     192.425E-03
             522            1108     183.711E-03     192.425E-03
             507            1109     206.536E-03     215.355E-03
             522            1109     206.536E-03     215.355E-03
             523            1109     206.536E-03     215.355E-03
             506            1109     206.536E-03     215.355E-03
             523            1110     229.591E-03     238.623E-03
             524            1110     229.591E-03     238.623E-03
             508            1110     229.591E-03     238.623E-03
             507            1110     229.591E-03     238.623E-03
             509            1111     253.186E-03     262.733E-03
             524            1111     253.186E-03     262.733E-03
             525            1111     253.186E-03     262.733E-03
             508            1111     253.186E-03     262.733E-03
             525            1112     278.071E-03     288.185E-03
             526            1112     278.071E-03     288.185E-03
             510            1112     278.071E-03     288.185E-03
             509            1112     278.071E-03     288.185E-03
             527            1113     308.778E-03     317.740E-03
             511            1113     308.778E-03     317.740E-03
             510            1113     308.778E-03     317.740E-03
             526            1113     308.778E-03     317.740E-03
             512            1114     340.991E-03     345.405E-03
             511            1114     340.991E-03     345.405E-03
             528            1114     340.991E-03     345.405E-03
             527            1114     340.991E-03     345.405E-03
             530            1115     14.5600E-03     15.3086E-03
             529            1115     14.5600E-03     15.3086E-03
             514            1115     14.5600E-03     15.3086E-03
             513            1115     14.5600E-03     15.3086E-03
             531            1116     25.1517E-03     34.1382E-03
             515            1116     25.1517E-03     34.1382E-03
             530            1116     25.1517E-03     34.1382E-03
             514            1116     25.1517E-03     34.1382E-03
             516            1117     46.4599E-03     57.4059E-03
             532            1117     46.4599E-03     57.4059E-03
             531            1117     46.4599E-03     57.4059E-03
             515            1117     46.4599E-03     57.4059E-03
             533            1118     68.4300E-03     80.0702E-03
             532            1118     68.4300E-03     80.0702E-03
             516            1118     68.4300E-03     80.0702E-03
             517            1118     68.4300E-03     80.0702E-03
             533            1119     90.6649E-03     102.400E-03
             518            1119     90.6649E-03     102.400E-03
             517            1119     90.6649E-03     102.400E-03
             534            1119     90.6649E-03     102.400E-03
             518            1120     112.922E-03     124.666E-03
             519            1120     112.922E-03     124.666E-03
             534            1120     112.922E-03     124.666E-03
             535            1120     112.922E-03     124.666E-03
             520            1121     135.148E-03     146.849E-03
             519            1121     135.148E-03     146.849E-03
             535            1121     135.148E-03     146.849E-03
             536            1121     135.148E-03     146.849E-03
             520            1122     157.311E-03     168.974E-03
             521            1122     157.311E-03     168.974E-03
             537            1122     157.311E-03     168.974E-03
             536            1122     157.311E-03     168.974E-03
             521            1123     179.362E-03     190.950E-03
             538            1123     179.362E-03     190.950E-03
             522            1123     179.362E-03     190.950E-03
             537            1123     179.362E-03     190.950E-03
             522            1124     201.376E-03     212.853E-03
             523            1124     201.376E-03     212.853E-03
             538            1124     201.376E-03     212.853E-03
             539            1124     201.376E-03     212.853E-03
             539            1125     223.340E-03     234.615E-03
             540            1125     223.340E-03     234.615E-03
             523            1125     223.340E-03     234.615E-03
             524            1125     223.340E-03     234.615E-03
             540            1126     245.966E-03     256.836E-03
             525            1126     245.966E-03     256.836E-03
             524            1126     245.966E-03     256.836E-03
             541            1126     245.966E-03     256.836E-03
             525            1127     269.550E-03     280.098E-03
             526            1127     269.550E-03     280.098E-03
             542            1127     269.550E-03     280.098E-03
             541            1127     269.550E-03     280.098E-03
             526            1128     298.564E-03     308.578E-03
             542            1128     298.564E-03     308.578E-03
             543            1128     298.564E-03     308.578E-03
             527            1128     298.564E-03     308.578E-03
             527            1129     340.459E-03     347.665E-03
             528            1129     340.459E-03     347.665E-03
             544            1129     340.459E-03     347.665E-03
             543            1129     340.459E-03     347.665E-03
             994            1451     40.8361E-03     46.6756E-03
            1010            1451     40.8361E-03     46.6756E-03
            1011            1451     40.8361E-03     46.6756E-03
             995            1451     40.8361E-03     46.6756E-03
             996            1452     55.5059E-03     52.2480E-03
            1011            1452     55.5059E-03     52.2480E-03
            1012            1452     55.5059E-03     52.2480E-03
             995            1452     55.5059E-03     52.2480E-03
             997            1453     76.4272E-03     71.7601E-03
            1012            1453     76.4272E-03     71.7601E-03
            1013            1453     76.4272E-03     71.7601E-03
             996            1453     76.4272E-03     71.7601E-03
             997            1454     98.4745E-03     93.8932E-03
            1014            1454     98.4745E-03     93.8932E-03
            1013            1454     98.4745E-03     93.8932E-03
             998            1454     98.4745E-03     93.8932E-03
             999            1455     121.383E-03     117.135E-03
            1014            1455     121.383E-03     117.135E-03
            1015            1455     121.383E-03     117.135E-03
             998            1455     121.383E-03     117.135E-03
            1015            1456     144.613E-03     140.837E-03
            1016            1456     144.613E-03     140.837E-03
            1000            1456     144.613E-03     140.837E-03
             999            1456     144.613E-03     140.837E-03
            1000            1457     168.034E-03     164.750E-03
            1017            1457     168.034E-03     164.750E-03
            1001            1457     168.034E-03     164.750E-03
            1016            1457     168.034E-03     164.750E-03
            1001            1458     191.486E-03     188.837E-03
            1017            1458     191.486E-03     188.837E-03
            1002            1458     191.486E-03     188.837E-03
            1018            1458     191.486E-03     188.837E-03
            1019            1459     214.962E-03     212.829E-03
            1002            1459     214.962E-03     212.829E-03
            1003            1459     214.962E-03     212.829E-03
            1018            1459     214.962E-03     212.829E-03
            1003            1460     238.311E-03     236.877E-03
            1020            1460     238.311E-03     236.877E-03
            1019            1460     238.311E-03     236.877E-03
            1004            1460     238.311E-03     236.877E-03
            1004            1461     261.530E-03     260.572E-03
            1021            1461     261.530E-03     260.572E-03
            1020            1461     261.530E-03     260.572E-03
            1005            1461     261.530E-03     260.572E-03
            1005            1462     284.572E-03     284.114E-03
            1021            1462     284.572E-03     284.114E-03
            1022            1462     284.572E-03     284.114E-03
            1006            1462     284.572E-03     284.114E-03
            1022            1463     306.980E-03     306.901E-03
            1023            1463     306.980E-03     306.901E-03
            1007            1463     306.980E-03     306.901E-03
            1006            1463     306.980E-03     306.901E-03
            1023            1464     327.085E-03     327.396E-03
            1008            1464     327.085E-03     327.396E-03
            1007            1464     327.085E-03     327.396E-03
            1024            1464     327.085E-03     327.396E-03
            1009            1465     343.805E-03     345.262E-03
            1024            1465     343.805E-03     345.262E-03
            1008            1465     343.805E-03     345.262E-03
            1025            1465     343.805E-03     345.262E-03
            1027            1466     54.1088E-03     58.7268E-03
            1010            1466     54.1088E-03     58.7268E-03
            1011            1466     54.1088E-03     58.7268E-03
            1026            1466     54.1088E-03     58.7268E-03
            1012            1467     64.8652E-03     58.9333E-03
            1028            1467     64.8652E-03     58.9333E-03
            1027            1467     64.8652E-03     58.9333E-03
            1011            1467     64.8652E-03     58.9333E-03
            1029            1468     87.5934E-03     79.5538E-03
            1013            1468     87.5934E-03     79.5538E-03
            1012            1468     87.5934E-03     79.5538E-03
            1028            1468     87.5934E-03     79.5538E-03
            1014            1469     110.600E-03     102.821E-03
            1030            1469     110.600E-03     102.821E-03
            1029            1469     110.600E-03     102.821E-03
            1013            1469     110.600E-03     102.821E-03
            1014            1470     134.614E-03     127.201E-03
            1015            1470     134.614E-03     127.201E-03
            1030            1470     134.614E-03     127.201E-03
            1031            1470     134.614E-03     127.201E-03
            1031            1471     158.629E-03     151.918E-03
            1015            1471     158.629E-03     151.918E-03
            1016            1471     158.629E-03     151.918E-03
            1032            1471     158.629E-03     151.918E-03
            1017            1472     182.969E-03     176.950E-03
            1032            1472     182.969E-03     176.950E-03
            1016            1472     182.969E-03     176.950E-03
            1033            1472     182.969E-03     176.950E-03
            1034            1473     207.276E-03     202.043E-03
            1018            1473     207.276E-03     202.043E-03
            1017            1473     207.276E-03     202.043E-03
            1033            1473     207.276E-03     202.043E-03
            1035            1474     231.674E-03     227.164E-03
            1018            1474     231.674E-03     227.164E-03
            1034            1474     231.674E-03     227.164E-03
            1019            1474     231.674E-03     227.164E-03
            1035            1475     255.915E-03     252.259E-03
            1020            1475     255.915E-03     252.259E-03
            1036            1475     255.915E-03     252.259E-03
            1019            1475     255.915E-03     252.259E-03
            1036            1476     280.239E-03     277.268E-03
            1020            1476     280.239E-03     277.268E-03
            1021            1476     280.239E-03     277.268E-03
            1037            1476     280.239E-03     277.268E-03
            1038            1477     304.244E-03     302.203E-03
            1022            1477     304.244E-03     302.203E-03
            1021            1477     304.244E-03     302.203E-03
            1037            1477     304.244E-03     302.203E-03
            1039            1478     328.334E-03     326.875E-03
            1038            1478     328.334E-03     326.875E-03
            1023            1478     328.334E-03     326.875E-03
            1022            1478     328.334E-03     326.875E-03
            1023            1479     350.392E-03     349.676E-03
            1024            1479     350.392E-03     349.676E-03
            1040            1479     350.392E-03     349.676E-03
            1039            1479     350.392E-03     349.676E-03
            1024            1480     364.993E-03     366.234E-03
            1025            1480     364.993E-03     366.234E-03
            1041            1480     364.993E-03     366.234E-03
            1040            1480     364.993E-03     366.234E-03
            1043            1481     46.9935E-03     48.5276E-03
            1042            1481     46.9935E-03     48.5276E-03
            1027            1481     46.9935E-03     48.5276E-03
            1026            1481     46.9935E-03     48.5276E-03
            1044            1482     50.5601E-03     59.2590E-03
            1043            1482     50.5601E-03     59.2590E-03
            1027            1482     50.5601E-03     59.2590E-03
            1028            1482     50.5601E-03     59.2590E-03
            1045            1483     73.9697E-03     81.1574E-03
            1029            1483     73.9697E-03     81.1574E-03
            1028            1483     73.9697E-03     81.1574E-03
            1044            1483     73.9697E-03     81.1574E-03
            1030            1484     99.0790E-03     106.093E-03
            1029            1484     99.0790E-03     106.093E-03
            1046            1484     99.0790E-03     106.093E-03
            1045            1484     99.0790E-03     106.093E-03
            1031            1485     124.020E-03     131.220E-03
            1047            1485     124.020E-03     131.220E-03
            1030            1485     124.020E-03     131.220E-03
            1046            1485     124.020E-03     131.220E-03
            1032            1486     149.180E-03     156.411E-03
            1031            1486     149.180E-03     156.411E-03
            1047            1486     149.180E-03     156.411E-03
            1048            1486     149.180E-03     156.411E-03
            1049            1487     174.388E-03     181.630E-03
            1048            1487     174.388E-03     181.630E-03
            1033            1487     174.388E-03     181.630E-03
            1032            1487     174.388E-03     181.630E-03
            1033            1488     199.698E-03     206.876E-03
            1049            1488     199.698E-03     206.876E-03
            1050            1488     199.698E-03     206.876E-03
            1034            1488     199.698E-03     206.876E-03
            1051            1489     225.041E-03     232.227E-03
            1035            1489     225.041E-03     232.227E-03
            1050            1489     225.041E-03     232.227E-03
            1034            1489     225.041E-03     232.227E-03
            1052            1490     250.525E-03     257.630E-03
            1035            1490     250.525E-03     257.630E-03
            1036            1490     250.525E-03     257.630E-03
            1051            1490     250.525E-03     257.630E-03
            1036            1491     276.144E-03     283.314E-03
            1053            1491     276.144E-03     283.314E-03
            1052            1491     276.144E-03     283.314E-03
            1037            1491     276.144E-03     283.314E-03
            1038            1492     302.002E-03     309.390E-03
            1054            1492     302.002E-03     309.390E-03
            1053            1492     302.002E-03     309.390E-03
            1037            1492     302.002E-03     309.390E-03
            1038            1493     328.146E-03     336.201E-03
            1054            1493     328.146E-03     336.201E-03
            1039            1493     328.146E-03     336.201E-03
            1055            1493     328.146E-03     336.201E-03
            1040            1494     357.669E-03     365.907E-03
            1056            1494     357.669E-03     365.907E-03
            1055            1494     357.669E-03     365.907E-03
            1039            1494     357.669E-03     365.907E-03
            1041            1495     385.759E-03     390.184E-03
            1040            1495     385.759E-03     390.184E-03
            1056            1495     385.759E-03     390.184E-03
            1057            1495     385.759E-03     390.184E-03
            1043            1496     34.3378E-03     52.2698E-03
            1058            1496     34.3378E-03     52.2698E-03
            1059            1496     34.3378E-03     52.2698E-03
            1042            1496     34.3378E-03     52.2698E-03
            1059            1497     41.3219E-03     66.0988E-03
            1043            1497     41.3219E-03     66.0988E-03
            1044            1497     41.3219E-03     66.0988E-03
            1060            1497     41.3219E-03     66.0988E-03
            1060            1498     64.2019E-03     87.9320E-03
            1061            1498     64.2019E-03     87.9320E-03
            1045            1498     64.2019E-03     87.9320E-03
            1044            1498     64.2019E-03     87.9320E-03
            1062            1499     89.8425E-03     112.677E-03
            1046            1499     89.8425E-03     112.677E-03
            1045            1499     89.8425E-03     112.677E-03
            1061            1499     89.8425E-03     112.677E-03
            1047            1500     115.389E-03     137.573E-03
            1062            1500     115.389E-03     137.573E-03
            1063            1500     115.389E-03     137.573E-03
            1046            1500     115.389E-03     137.573E-03
            1063            1501     141.169E-03     162.510E-03
            1064            1501     141.169E-03     162.510E-03
            1048            1501     141.169E-03     162.510E-03
            1047            1501     141.169E-03     162.510E-03
            1065            1502     166.815E-03     187.292E-03
            1064            1502     166.815E-03     187.292E-03
            1049            1502     166.815E-03     187.292E-03
            1048            1502     166.815E-03     187.292E-03
            1049            1503     192.442E-03     212.132E-03
            1050            1503     192.442E-03     212.132E-03
            1065            1503     192.442E-03     212.132E-03
            1066            1503     192.442E-03     212.132E-03
            1066            1504     218.023E-03     236.820E-03
            1067            1504     218.023E-03     236.820E-03
            1050            1504     218.023E-03     236.820E-03
            1051            1504     218.023E-03     236.820E-03
            1068            1505     243.513E-03     261.546E-03
            1067            1505     243.513E-03     261.546E-03
            1051            1505     243.513E-03     261.546E-03
            1052            1505     243.513E-03     261.546E-03
            1068            1506     268.884E-03     286.008E-03
            1069            1506     268.884E-03     286.008E-03
            1053            1506     268.884E-03     286.008E-03
            1052            1506     268.884E-03     286.008E-03
            1053            1507     294.251E-03     310.538E-03
            1069            1507     294.251E-03     310.538E-03
            1054            1507     294.251E-03     310.538E-03
            1070            1507     294.251E-03     310.538E-03
            1071            1508     319.589E-03     335.207E-03
            1055            1508     319.589E-03     335.207E-03
            1054            1508     319.589E-03     335.207E-03
            1070            1508     319.589E-03     335.207E-03
            1056            1509     348.174E-03     362.830E-03
            1055            1509     348.174E-03     362.830E-03
            1071            1509     348.174E-03     362.830E-03
            1072            1509     348.174E-03     362.830E-03
            1073            1510     386.841E-03     398.434E-03
            1072            1510     386.841E-03     398.434E-03
            1056            1510     386.841E-03     398.434E-03
            1057            1510     386.841E-03     398.434E-03
            1753            2102     49.1997E-03     55.6558E-03
            1770            2102     49.1997E-03     55.6558E-03
            1754            2102     49.1997E-03     55.6558E-03
            1769            2102     49.1997E-03     55.6558E-03
            1754            2103     64.4921E-03     71.7489E-03
            1755            2103     64.4921E-03     71.7489E-03
            1770            2103     64.4921E-03     71.7489E-03
            1771            2103     64.4921E-03     71.7489E-03
            1755            2104     84.7979E-03     92.0119E-03
            1756            2104     84.7979E-03     92.0119E-03
            1772            2104     84.7979E-03     92.0119E-03
            1771            2104     84.7979E-03     92.0119E-03
            1757            2105     106.303E-03     113.418E-03
            1772            2105     106.303E-03     113.418E-03
            1756            2105     106.303E-03     113.418E-03
            1773            2105     106.303E-03     113.418E-03
            1773            2106     128.514E-03     135.513E-03
            1758            2106     128.514E-03     135.513E-03
            1757            2106     128.514E-03     135.513E-03
            1774            2106     128.514E-03     135.513E-03
            1774            2107     151.033E-03     158.002E-03
            1758            2107     151.033E-03     158.002E-03
            1759            2107     151.033E-03     158.002E-03
            1775            2107     151.033E-03     158.002E-03
            1759            2108     173.815E-03     180.659E-03
            1760            2108     173.815E-03     180.659E-03
            1776            2108     173.815E-03     180.659E-03
            1775            2108     173.815E-03     180.659E-03
            1760            2109     196.615E-03     203.583E-03
            1761            2109     196.615E-03     203.583E-03
            1776            2109     196.615E-03     203.583E-03
            1777            2109     196.615E-03     203.583E-03
            1761            2110     219.719E-03     226.396E-03
            1777            2110     219.719E-03     226.396E-03
            1778            2110     219.719E-03     226.396E-03
            1762            2110     219.719E-03     226.396E-03
            1762            2111     242.559E-03     249.634E-03
            1779            2111     242.559E-03     249.634E-03
            1778            2111     242.559E-03     249.634E-03
            1763            2111     242.559E-03     249.634E-03
            1763            2112     265.949E-03     272.426E-03
            1764            2112     265.949E-03     272.426E-03
            1780            2112     265.949E-03     272.426E-03
            1779            2112     265.949E-03     272.426E-03
            1765            2113     288.770E-03     295.936E-03
            1781            2113     288.770E-03     295.936E-03
            1780            2113     288.770E-03     295.936E-03
            1764            2113     288.770E-03     295.936E-03
            1766            2114     312.100E-03     318.619E-03
            1765            2114     312.100E-03     318.619E-03
            1781            2114     312.100E-03     318.619E-03
            1782            2114     312.100E-03     318.619E-03
            1767            2115     335.452E-03     341.997E-03
            1783            2115     335.452E-03     341.997E-03
            1782            2115     335.452E-03     341.997E-03
            1766            2115     335.452E-03     341.997E-03
            1768            2116     356.521E-03     364.137E-03
            1783            2116     356.521E-03     364.137E-03
            1784            2116     356.521E-03     364.137E-03
            1767            2116     356.521E-03     364.137E-03
            1769            2117     46.4449E-03     49.1211E-03
            1786            2117     46.4449E-03     49.1211E-03
            1770            2117     46.4449E-03     49.1211E-03
            1785            2117     46.4449E-03     49.1211E-03
            1770            2118     61.3533E-03     64.9123E-03
            1786            2118     61.3533E-03     64.9123E-03
            1787            2118     61.3533E-03     64.9123E-03
            1771            2118     61.3533E-03     64.9123E-03
            1788            2119     79.7270E-03     83.2646E-03
            1771            2119     79.7270E-03     83.2646E-03
            1772            2119     79.7270E-03     83.2646E-03
            1787            2119     79.7270E-03     83.2646E-03
            1772            2120     99.7846E-03     102.859E-03
            1773            2120     99.7846E-03     102.859E-03
            1789            2120     99.7846E-03     102.859E-03
            1788            2120     99.7846E-03     102.859E-03
            1773            2121     120.350E-03     123.202E-03
            1789            2121     120.350E-03     123.202E-03
            1774            2121     120.350E-03     123.202E-03
            1790            2121     120.350E-03     123.202E-03
            1790            2122     141.103E-03     143.933E-03
            1774            2122     141.103E-03     143.933E-03
            1775            2122     141.103E-03     143.933E-03
            1791            2122     141.103E-03     143.933E-03
            1776            2123     162.132E-03     164.796E-03
            1791            2123     162.132E-03     164.796E-03
            1775            2123     162.132E-03     164.796E-03
            1792            2123     162.132E-03     164.796E-03
            1793            2124     183.143E-03     185.913E-03
            1776            2124     183.143E-03     185.913E-03
            1777            2124     183.143E-03     185.913E-03
            1792            2124     183.143E-03     185.913E-03
            1777            2125     204.439E-03     206.933E-03
            1794            2125     204.439E-03     206.933E-03
            1778            2125     204.439E-03     206.933E-03
            1793            2125     204.439E-03     206.933E-03
            1794            2126     225.485E-03     228.280E-03
            1779            2126     225.485E-03     228.280E-03
            1778            2126     225.485E-03     228.280E-03
            1795            2126     225.485E-03     228.280E-03
            1780            2127     246.950E-03     249.306E-03
            1795            2127     246.950E-03     249.306E-03
            1779            2127     246.950E-03     249.306E-03
            1796            2127     246.950E-03     249.306E-03
            1796            2128     267.968E-03     270.736E-03
            1780            2128     267.968E-03     270.736E-03
            1781            2128     267.968E-03     270.736E-03
            1797            2128     267.968E-03     270.736E-03
            1798            2129     288.647E-03     290.791E-03
            1797            2129     288.647E-03     290.791E-03
            1782            2129     288.647E-03     290.791E-03
            1781            2129     288.647E-03     290.791E-03
            1799            2130     311.322E-03     313.416E-03
            1782            2130     311.322E-03     313.416E-03
            1783            2130     311.322E-03     313.416E-03
            1798            2130     311.322E-03     313.416E-03
            1800            2131     336.346E-03     341.041E-03
            1799            2131     336.346E-03     341.041E-03
            1783            2131     336.346E-03     341.041E-03
            1784            2131     336.346E-03     341.041E-03
            1802            2132     40.0124E-03     51.9900E-03
            1786            2132     40.0124E-03     51.9900E-03
            1801            2132     40.0124E-03     51.9900E-03
            1785            2132     40.0124E-03     51.9900E-03
            1786            2133     49.6245E-03     65.4985E-03
            1787            2133     49.6245E-03     65.4985E-03
            1803            2133     49.6245E-03     65.4985E-03
            1802            2133     49.6245E-03     65.4985E-03
            1787            2134     65.5838E-03     82.7425E-03
            1804            2134     65.5838E-03     82.7425E-03
            1788            2134     65.5838E-03     82.7425E-03
            1803            2134     65.5838E-03     82.7425E-03
            1805            2135     83.5759E-03     101.319E-03
            1788            2135     83.5759E-03     101.319E-03
            1789            2135     83.5759E-03     101.319E-03
            1804            2135     83.5759E-03     101.319E-03
            1789            2136     102.264E-03     120.169E-03
            1806            2136     102.264E-03     120.169E-03
            1790            2136     102.264E-03     120.169E-03
            1805            2136     102.264E-03     120.169E-03
            1806            2137     121.216E-03     139.286E-03
            1807            2137     121.216E-03     139.286E-03
            1791            2137     121.216E-03     139.286E-03
            1790            2137     121.216E-03     139.286E-03
            1808            2138     140.409E-03     158.493E-03
            1807            2138     140.409E-03     158.493E-03
            1792            2138     140.409E-03     158.493E-03
            1791            2138     140.409E-03     158.493E-03
            1809            2139     159.675E-03     177.875E-03
            1792            2139     159.675E-03     177.875E-03
            1808            2139     159.675E-03     177.875E-03
            1793            2139     159.675E-03     177.875E-03
            1809            2140     179.097E-03     197.228E-03
            1793            2140     179.097E-03     197.228E-03
            1794            2140     179.097E-03     197.228E-03
            1810            2140     179.097E-03     197.228E-03
            1811            2141     198.528E-03     216.772E-03
            1810            2141     198.528E-03     216.772E-03
            1794            2141     198.528E-03     216.772E-03
            1795            2141     198.528E-03     216.772E-03
            1796            2142     218.067E-03     236.171E-03
            1812            2142     218.067E-03     236.171E-03
            1811            2142     218.067E-03     236.171E-03
            1795            2142     218.067E-03     236.171E-03
            1812            2143     237.714E-03     255.878E-03
            1813            2143     237.714E-03     255.878E-03
            1797            2143     237.714E-03     255.878E-03
            1796            2143     237.714E-03     255.878E-03
            1798            2144     256.806E-03     275.149E-03
            1814            2144     256.806E-03     275.149E-03
            1813            2144     256.806E-03     275.149E-03
            1797            2144     256.806E-03     275.149E-03
            1814            2145     278.054E-03     296.193E-03
            1798            2145     278.054E-03     296.193E-03
            1799            2145     278.054E-03     296.193E-03
            1815            2145     278.054E-03     296.193E-03
            1816            2146     312.844E-03     328.626E-03
            1800            2146     312.844E-03     328.626E-03
            1799            2146     312.844E-03     328.626E-03
            1815            2146     312.844E-03     328.626E-03
            1817            2147     56.5756E-03     55.7686E-03
            1818            2147     56.5756E-03     55.7686E-03
            1801            2147     56.5756E-03     55.7686E-03
            1802            2147     56.5756E-03     55.7686E-03
            1818            2148     68.2320E-03     64.0290E-03
            1802            2148     68.2320E-03     64.0290E-03
            1819            2148     68.2320E-03     64.0290E-03
            1803            2148     68.2320E-03     64.0290E-03
            1804            2149     83.7266E-03     78.1225E-03
            1820            2149     83.7266E-03     78.1225E-03
            1803            2149     83.7266E-03     78.1225E-03
            1819            2149     83.7266E-03     78.1225E-03
            1821            2150     100.826E-03     94.9349E-03
            1820            2150     100.826E-03     94.9349E-03
            1804            2150     100.826E-03     94.9349E-03
            1805            2150     100.826E-03     94.9349E-03
            1805            2151     118.779E-03     112.591E-03
            1822            2151     118.779E-03     112.591E-03
            1821            2151     118.779E-03     112.591E-03
            1806            2151     118.779E-03     112.591E-03
            1806            2152     137.271E-03     130.833E-03
            1823            2152     137.271E-03     130.833E-03
            1822            2152     137.271E-03     130.833E-03
            1807            2152     137.271E-03     130.833E-03
            1824            2153     155.997E-03     149.476E-03
            1807            2153     155.997E-03     149.476E-03
            1823            2153     155.997E-03     149.476E-03
            1808            2153     155.997E-03     149.476E-03
            1825            2154     174.968E-03     168.307E-03
            1824            2154     174.968E-03     168.307E-03
            1808            2154     174.968E-03     168.307E-03
            1809            2154     174.968E-03     168.307E-03
            1826            2155     193.976E-03     187.339E-03
            1809            2155     193.976E-03     187.339E-03
            1810            2155     193.976E-03     187.339E-03
            1825            2155     193.976E-03     187.339E-03
            1810            2156     213.142E-03     206.364E-03
            1811            2156     213.142E-03     206.364E-03
            1826            2156     213.142E-03     206.364E-03
            1827            2156     213.142E-03     206.364E-03
            1811            2157     232.145E-03     225.445E-03
            1827            2157     232.145E-03     225.445E-03
            1828            2157     232.145E-03     225.445E-03
            1812            2157     232.145E-03     225.445E-03
            1828            2158     251.355E-03     244.469E-03
            1812            2158     251.355E-03     244.469E-03
            1813            2158     251.355E-03     244.469E-03
            1829            2158     251.355E-03     244.469E-03
            1814            2159     270.472E-03     263.860E-03
            1829            2159     270.472E-03     263.860E-03
            1813            2159     270.472E-03     263.860E-03
            1830            2159     270.472E-03     263.860E-03
            1814            2160     289.851E-03     283.211E-03
            1815            2160     289.851E-03     283.211E-03
            1830            2160     289.851E-03     283.211E-03
            1831            2160     289.851E-03     283.211E-03
            1816            2161     295.541E-03     286.311E-03
            1831            2161     295.541E-03     286.311E-03
            1815            2161     295.541E-03     286.311E-03
            1832            2161     295.541E-03     286.311E-03
            2273            2468     282.118E-06     302.902E-06
            2289            2468     282.118E-06     302.902E-06
            2274            2468     282.118E-06     302.902E-06
            2290            2468     282.118E-06     302.902E-06
            2275            2469     213.884E-06     238.427E-06
            2290            2469     213.884E-06     238.427E-06
            2291            2469     213.884E-06     238.427E-06
            2274            2469     213.884E-06     238.427E-06
            2291            2470     190.615E-06     215.088E-06
            2292            2470     190.615E-06     215.088E-06
            2276            2470     190.615E-06     215.088E-06
            2275            2470     190.615E-06     215.088E-06
            2292            2471     183.562E-06     207.212E-06
            2293            2471     183.562E-06     207.212E-06
            2277            2471     183.562E-06     207.212E-06
            2276            2471     183.562E-06     207.212E-06
            2293            2472     177.760E-06     200.412E-06
            2277            2472     177.760E-06     200.412E-06
            2278            2472     177.760E-06     200.412E-06
            2294            2472     177.760E-06     200.412E-06
            2294            2473     172.222E-06     194.264E-06
            2279            2473     172.222E-06     194.264E-06
            2295            2473     172.222E-06     194.264E-06
            2278            2473     172.222E-06     194.264E-06
            2279            2474     166.536E-06     187.867E-06
            2296            2474     166.536E-06     187.867E-06
            2280            2474     166.536E-06     187.867E-06
            2295            2474     166.536E-06     187.867E-06
            2296            2475     161.400E-06     181.816E-06
            2281            2475     161.400E-06     181.816E-06
            2297            2475     161.400E-06     181.816E-06
            2280            2475     161.400E-06     181.816E-06
            2297            2476     156.756E-06     176.029E-06
            2282            2476     156.756E-06     176.029E-06
            2298            2476     156.756E-06     176.029E-06
            2281            2476     156.756E-06     176.029E-06
            2282            2477     153.044E-06     170.710E-06
            2299            2477     153.044E-06     170.710E-06
            2298            2477     153.044E-06     170.710E-06
            2283            2477     153.044E-06     170.710E-06
            2284            2478     150.076E-06     165.925E-06
            2283            2478     150.076E-06     165.925E-06
            2300            2478     150.076E-06     165.925E-06
            2299            2478     150.076E-06     165.925E-06
            2301            2479     148.214E-06     161.525E-06
            2284            2479     148.214E-06     161.525E-06
            2285            2479     148.214E-06     161.525E-06
            2300            2479     148.214E-06     161.525E-06
            2302            2480     146.864E-06     157.378E-06
            2285            2480     146.864E-06     157.378E-06
            2301            2480     146.864E-06     157.378E-06
            2286            2480     146.864E-06     157.378E-06
            2303            2481     144.762E-06     156.179E-06
            2286            2481     144.762E-06     156.179E-06
            2287            2481     144.762E-06     156.179E-06
            2302            2481     144.762E-06     156.179E-06
            2287            2482     144.224E-06     155.891E-06
            2288            2482     144.224E-06     155.891E-06
            2303            2482     144.224E-06     155.891E-06
            2304            2482     144.224E-06     155.891E-06
            2289            2483     236.398E-06     240.371E-06
            2305            2483     236.398E-06     240.371E-06
            2290            2483     236.398E-06     240.371E-06
            2306            2483     236.398E-06     240.371E-06
            2307            2484     214.131E-06     225.941E-06
            2306            2484     214.131E-06     225.941E-06
            2290            2484     214.131E-06     225.941E-06
            2291            2484     214.131E-06     225.941E-06
            2307            2485     202.304E-06     217.402E-06
            2292            2485     202.304E-06     217.402E-06
            2308            2485     202.304E-06     217.402E-06
            2291            2485     202.304E-06     217.402E-06
            2309            2486     196.461E-06     211.155E-06
            2293            2486     196.461E-06     211.155E-06
            2292            2486     196.461E-06     211.155E-06
            2308            2486     196.461E-06     211.155E-06
            2309            2487     189.696E-06     203.315E-06
            2310            2487     189.696E-06     203.315E-06
            2293            2487     189.696E-06     203.315E-06
            2294            2487     189.696E-06     203.315E-06
            2294            2488     182.080E-06     195.681E-06
            2310            2488     182.080E-06     195.681E-06
            2311            2488     182.080E-06     195.681E-06
            2295            2488     182.080E-06     195.681E-06
            2295            2489     175.694E-06     188.726E-06
            2312            2489     175.694E-06     188.726E-06
            2296            2489     175.694E-06     188.726E-06
            2311            2489     175.694E-06     188.726E-06
            2296            2490     169.814E-06     182.449E-06
            2312            2490     169.814E-06     182.449E-06
            2313            2490     169.814E-06     182.449E-06
            2297            2490     169.814E-06     182.449E-06
            2314            2491     164.966E-06     176.968E-06
            2313            2491     164.966E-06     176.968E-06
            2298            2491     164.966E-06     176.968E-06
            2297            2491     164.966E-06     176.968E-06
            2298            2492     160.917E-06     172.057E-06
            2314            2492     160.917E-06     172.057E-06
            2315            2492     160.917E-06     172.057E-06
            2299            2492     160.917E-06     172.057E-06
            2300            2493     157.645E-06     167.980E-06
            2316            2493     157.645E-06     167.980E-06
            2315            2493     157.645E-06     167.980E-06
            2299            2493     157.645E-06     167.980E-06
            2317            2494     155.422E-06     164.438E-06
            2300            2494     155.422E-06     164.438E-06
            2301            2494     155.422E-06     164.438E-06
            2316            2494     155.422E-06     164.438E-06
            2318            2495     154.274E-06     161.471E-06
            2301            2495     154.274E-06     161.471E-06
            2302            2495     154.274E-06     161.471E-06
            2317            2495     154.274E-06     161.471E-06
            2302            2496     154.851E-06     158.085E-06
            2319            2496     154.851E-06     158.085E-06
            2318            2496     154.851E-06     158.085E-06
            2303            2496     154.851E-06     158.085E-06
            2303            2497     160.210E-06     152.122E-06
            2304            2497     160.210E-06     152.122E-06
            2320            2497     160.210E-06     152.122E-06
            2319            2497     160.210E-06     152.122E-06
            2306            2498     168.491E-06     175.314E-06
            2321            2498     168.491E-06     175.314E-06
            2305            2498     168.491E-06     175.314E-06
            2322            2498     168.491E-06     175.314E-06
            2307            2499     187.784E-06     198.252E-06
            2306            2499     187.784E-06     198.252E-06
            2323            2499     187.784E-06     198.252E-06
            2322            2499     187.784E-06     198.252E-06
            2323            2500     207.574E-06     213.759E-06
            2307            2500     207.574E-06     213.759E-06
            2308            2500     207.574E-06     213.759E-06
            2324            2500     207.574E-06     213.759E-06
            2309            2501     205.933E-06     210.176E-06
            2325            2501     205.933E-06     210.176E-06
            2324            2501     205.933E-06     210.176E-06
            2308            2501     205.933E-06     210.176E-06
            2325            2502     198.401E-06     203.149E-06
            2309            2502     198.401E-06     203.149E-06
            2326            2502     198.401E-06     203.149E-06
            2310            2502     198.401E-06     203.149E-06
            2310            2503     191.037E-06     195.308E-06
            2326            2503     191.037E-06     195.308E-06
            2327            2503     191.037E-06     195.308E-06
            2311            2503     191.037E-06     195.308E-06
            2327            2504     183.952E-06     188.434E-06
            2311            2504     183.952E-06     188.434E-06
            2312            2504     183.952E-06     188.434E-06
            2328            2504     183.952E-06     188.434E-06
            2329            2505     178.230E-06     182.584E-06
            2313            2505     178.230E-06     182.584E-06
            2312            2505     178.230E-06     182.584E-06
            2328            2505     178.230E-06     182.584E-06
            2313            2506     173.296E-06     177.564E-06
            2329            2506     173.296E-06     177.564E-06
            2314            2506     173.296E-06     177.564E-06
            2330            2506     173.296E-06     177.564E-06
            2315            2507     169.150E-06     173.494E-06
            2314            2507     169.150E-06     173.494E-06
            2331            2507     169.150E-06     173.494E-06
            2330            2507     169.150E-06     173.494E-06
            2316            2508     165.863E-06     169.974E-06
            2332            2508     165.863E-06     169.974E-06
            2315            2508     165.863E-06     169.974E-06
            2331            2508     165.863E-06     169.974E-06
            2332            2509     163.022E-06     167.533E-06
            2317            2509     163.022E-06     167.533E-06
            2333            2509     163.022E-06     167.533E-06
            2316            2509     163.022E-06     167.533E-06
            2318            2510     161.763E-06     165.836E-06
            2333            2510     161.763E-06     165.836E-06
            2317            2510     161.763E-06     165.836E-06
            2334            2510     161.763E-06     165.836E-06
            2335            2511     165.428E-06     160.297E-06
            2334            2511     165.428E-06     160.297E-06
            2319            2511     165.428E-06     160.297E-06
            2318            2511     165.428E-06     160.297E-06
            2319            2512     169.223E-06     151.764E-06
            2336            2512     169.223E-06     151.764E-06
            2335            2512     169.223E-06     151.764E-06
            2320            2512     169.223E-06     151.764E-06
            2338            2513     114.029E-06     114.576E-06
            2322            2513     114.029E-06     114.576E-06
            2321            2513     114.029E-06     114.576E-06
            2337            2513     114.029E-06     114.576E-06
            2322            2514     166.913E-06     167.892E-06
            2339            2514     166.913E-06     167.892E-06
            2338            2514     166.913E-06     167.892E-06
            2323            2514     166.913E-06     167.892E-06
            2324            2515     201.961E-06     196.598E-06
            2339            2515     201.961E-06     196.598E-06
            2340            2515     201.961E-06     196.598E-06
            2323            2515     201.961E-06     196.598E-06
            2341            2516     206.623E-06     200.622E-06
            2324            2516     206.623E-06     200.622E-06
            2340            2516     206.623E-06     200.622E-06
            2325            2516     206.623E-06     200.622E-06
            2341            2517     202.797E-06     197.046E-06
            2326            2517     202.797E-06     197.046E-06
            2342            2517     202.797E-06     197.046E-06
            2325            2517     202.797E-06     197.046E-06
            2343            2518     197.008E-06     191.799E-06
            2342            2518     197.008E-06     191.799E-06
            2327            2518     197.008E-06     191.799E-06
            2326            2518     197.008E-06     191.799E-06
            2327            2519     191.427E-06     186.629E-06
            2343            2519     191.427E-06     186.629E-06
            2328            2519     191.427E-06     186.629E-06
            2344            2519     191.427E-06     186.629E-06
            2328            2520     186.344E-06     182.044E-06
            2344            2520     186.344E-06     182.044E-06
            2345            2520     186.344E-06     182.044E-06
            2329            2520     186.344E-06     182.044E-06
            2345            2521     181.884E-06     178.200E-06
            2329            2521     181.884E-06     178.200E-06
            2330            2521     181.884E-06     178.200E-06
            2346            2521     181.884E-06     178.200E-06
            2347            2522     177.988E-06     174.872E-06
            2330            2522     177.988E-06     174.872E-06
            2346            2522     177.988E-06     174.872E-06
            2331            2522     177.988E-06     174.872E-06
            2347            2523     174.498E-06     172.363E-06
            2332            2523     174.498E-06     172.363E-06
            2348            2523     174.498E-06     172.363E-06
            2331            2523     174.498E-06     172.363E-06
            2348            2524     171.672E-06     170.399E-06
            2332            2524     171.672E-06     170.399E-06
            2333            2524     171.672E-06     170.399E-06
            2349            2524     171.672E-06     170.399E-06
            2333            2525     169.272E-06     169.302E-06
            2349            2525     169.272E-06     169.302E-06
            2334            2525     169.272E-06     169.302E-06
            2350            2525     169.272E-06     169.302E-06
            2334            2526     168.004E-06     169.141E-06
            2351            2526     168.004E-06     169.141E-06
            2350            2526     168.004E-06     169.141E-06
            2335            2526     168.004E-06     169.141E-06
            2336            2527     172.436E-06     165.493E-06
            2351            2527     172.436E-06     165.493E-06
            2352            2527     172.436E-06     165.493E-06
            2335            2527     172.436E-06     165.493E-06
            2353            2528     88.0132E-06     94.1880E-06
            2337            2528     88.0132E-06     94.1880E-06
            2338            2528     88.0132E-06     94.1880E-06
            2354            2528     88.0132E-06     94.1880E-06
            2339            2529     153.937E-06     134.089E-06
            2355            2529     153.937E-06     134.089E-06
            2338            2529     153.937E-06     134.089E-06
            2354            2529     153.937E-06     134.089E-06
            2340            2530     186.902E-06     168.470E-06
            2339            2530     186.902E-06     168.470E-06
            2356            2530     186.902E-06     168.470E-06
            2355            2530     186.902E-06     168.470E-06
            2340            2531     200.160E-06     183.163E-06
            2357            2531     200.160E-06     183.163E-06
            2341            2531     200.160E-06     183.163E-06
            2356            2531     200.160E-06     183.163E-06
            2358            2532     203.216E-06     186.778E-06
            2357            2532     203.216E-06     186.778E-06
            2342            2532     203.216E-06     186.778E-06
            2341            2532     203.216E-06     186.778E-06
            2342            2533     201.473E-06     186.332E-06
            2358            2533     201.473E-06     186.332E-06
            2343            2533     201.473E-06     186.332E-06
            2359            2533     201.473E-06     186.332E-06
            2343            2534     198.428E-06     184.120E-06
            2360            2534     198.428E-06     184.120E-06
            2344            2534     198.428E-06     184.120E-06
            2359            2534     198.428E-06     184.120E-06
            2360            2535     194.708E-06     181.559E-06
            2345            2535     194.708E-06     181.559E-06
            2361            2535     194.708E-06     181.559E-06
            2344            2535     194.708E-06     181.559E-06
            2346            2536     190.964E-06     179.029E-06
            2362            2536     190.964E-06     179.029E-06
            2345            2536     190.964E-06     179.029E-06
            2361            2536     190.964E-06     179.029E-06
            2346            2537     187.382E-06     176.766E-06
            2363            2537     187.382E-06     176.766E-06
            2362            2537     187.382E-06     176.766E-06
            2347            2537     187.382E-06     176.766E-06
            2363            2538     183.920E-06     174.998E-06
            2348            2538     183.920E-06     174.998E-06
            2347            2538     183.920E-06     174.998E-06
            2364            2538     183.920E-06     174.998E-06
            2364            2539     180.893E-06     173.619E-06
            2348            2539     180.893E-06     173.619E-06
            2365            2539     180.893E-06     173.619E-06
            2349            2539     180.893E-06     173.619E-06
            2366            2540     177.536E-06     172.870E-06
            2349            2540     177.536E-06     172.870E-06
            2365            2540     177.536E-06     172.870E-06
            2350            2540     177.536E-06     172.870E-06
            2367            2541     172.747E-06     175.591E-06
            2350            2541     172.747E-06     175.591E-06
            2366            2541     172.747E-06     175.591E-06
            2351            2541     172.747E-06     175.591E-06
            2367            2542     168.836E-06     180.770E-06
            2368            2542     168.836E-06     180.770E-06
            2352            2542     168.836E-06     180.770E-06
            2351            2542     168.836E-06     180.770E-06
            2545            2693     144.222E-06     155.929E-06
            2562            2693     144.222E-06     155.929E-06
            2546            2693     144.222E-06     155.929E-06
            2561            2693     144.222E-06     155.929E-06
            2546            2694     144.772E-06     156.160E-06
            2562            2694     144.772E-06     156.160E-06
            2547            2694     144.772E-06     156.160E-06
            2563            2694     144.772E-06     156.160E-06
            2548            2695     146.848E-06     157.333E-06
            2547            2695     146.848E-06     157.333E-06
            2564            2695     146.848E-06     157.333E-06
            2563            2695     146.848E-06     157.333E-06
            2565            2696     148.150E-06     161.453E-06
            2549            2696     148.150E-06     161.453E-06
            2564            2696     148.150E-06     161.453E-06
            2548            2696     148.150E-06     161.453E-06
            2566            2697     149.963E-06     165.800E-06
            2565            2697     149.963E-06     165.800E-06
            2550            2697     149.963E-06     165.800E-06
            2549            2697     149.963E-06     165.800E-06
            2566            2698     152.875E-06     170.529E-06
            2551            2698     152.875E-06     170.529E-06
            2550            2698     152.875E-06     170.529E-06
            2567            2698     152.875E-06     170.529E-06
            2567            2699     156.525E-06     175.789E-06
            2568            2699     156.525E-06     175.789E-06
            2551            2699     156.525E-06     175.789E-06
            2552            2699     156.525E-06     175.789E-06
            2568            2700     161.104E-06     181.516E-06
            2569            2700     161.104E-06     181.516E-06
            2552            2700     161.104E-06     181.516E-06
            2553            2700     161.104E-06     181.516E-06
            2569            2701     166.177E-06     187.508E-06
            2570            2701     166.177E-06     187.508E-06
            2553            2701     166.177E-06     187.508E-06
            2554            2701     166.177E-06     187.508E-06
            2571            2702     171.804E-06     193.846E-06
            2554            2702     171.804E-06     193.846E-06
            2555            2702     171.804E-06     193.846E-06
            2570            2702     171.804E-06     193.846E-06
            2571            2703     177.282E-06     199.929E-06
            2572            2703     177.282E-06     199.929E-06
            2556            2703     177.282E-06     199.929E-06
            2555            2703     177.282E-06     199.929E-06
            2557            2704     182.990E-06     206.636E-06
            2573            2704     182.990E-06     206.636E-06
            2572            2704     182.990E-06     206.636E-06
            2556            2704     182.990E-06     206.636E-06
            2573            2705     189.810E-06     214.300E-06
            2574            2705     189.810E-06     214.300E-06
            2558            2705     189.810E-06     214.300E-06
            2557            2705     189.810E-06     214.300E-06
            2575            2706     212.671E-06     237.260E-06
            2574            2706     212.671E-06     237.260E-06
            2558            2706     212.671E-06     237.260E-06
            2559            2706     212.671E-06     237.260E-06
            2559            2707     280.423E-06     301.297E-06
            2560            2707     280.423E-06     301.297E-06
            2575            2707     280.423E-06     301.297E-06
            2576            2707     280.423E-06     301.297E-06
            2577            2708     160.133E-06     152.069E-06
            2562            2708     160.133E-06     152.069E-06
            2578            2708     160.133E-06     152.069E-06
            2561            2708     160.133E-06     152.069E-06
            2563            2709     154.745E-06     158.027E-06
            2579            2709     154.745E-06     158.027E-06
            2562            2709     154.745E-06     158.027E-06
            2578            2709     154.745E-06     158.027E-06
            2563            2710     154.149E-06     161.366E-06
            2580            2710     154.149E-06     161.366E-06
            2579            2710     154.149E-06     161.366E-06
            2564            2710     154.149E-06     161.366E-06
            2581            2711     155.269E-06     164.282E-06
            2565            2711     155.269E-06     164.282E-06
            2564            2711     155.269E-06     164.282E-06
            2580            2711     155.269E-06     164.282E-06
            2581            2712     157.452E-06     167.777E-06
            2565            2712     157.452E-06     167.777E-06
            2582            2712     157.452E-06     167.777E-06
            2566            2712     157.452E-06     167.777E-06
            2566            2713     160.672E-06     171.802E-06
            2567            2713     160.672E-06     171.802E-06
            2583            2713     160.672E-06     171.802E-06
            2582            2713     160.672E-06     171.802E-06
            2583            2714     164.659E-06     176.654E-06
            2568            2714     164.659E-06     176.654E-06
            2567            2714     164.659E-06     176.654E-06
            2584            2714     164.659E-06     176.654E-06
            2569            2715     169.437E-06     182.067E-06
            2568            2715     169.437E-06     182.067E-06
            2585            2715     169.437E-06     182.067E-06
            2584            2715     169.437E-06     182.067E-06
            2569            2716     175.244E-06     188.270E-06
            2570            2716     175.244E-06     188.270E-06
            2586            2716     175.244E-06     188.270E-06
            2585            2716     175.244E-06     188.270E-06
            2587            2717     181.555E-06     195.153E-06
            2570            2717     181.555E-06     195.153E-06
            2571            2717     181.555E-06     195.153E-06
            2586            2717     181.555E-06     195.153E-06
            2571            2718     189.112E-06     202.717E-06
            2572            2718     189.112E-06     202.717E-06
            2587            2718     189.112E-06     202.717E-06
            2588            2718     189.112E-06     202.717E-06
            2573            2719     195.841E-06     210.514E-06
            2589            2719     195.841E-06     210.514E-06
            2588            2719     195.841E-06     210.514E-06
            2572            2719     195.841E-06     210.514E-06
            2589            2720     201.605E-06     216.703E-06
            2573            2720     201.605E-06     216.703E-06
            2574            2720     201.605E-06     216.703E-06
            2590            2720     201.605E-06     216.703E-06
            2575            2721     213.201E-06     225.068E-06
            2590            2721     213.201E-06     225.068E-06
            2574            2721     213.201E-06     225.068E-06
            2591            2721     213.201E-06     225.068E-06
            2575            2722     235.075E-06     239.089E-06
            2591            2722     235.075E-06     239.089E-06
            2592            2722     235.075E-06     239.089E-06
            2576            2722     235.075E-06     239.089E-06
            2577            2723     169.107E-06     151.604E-06
            2594            2723     169.107E-06     151.604E-06
            2593            2723     169.107E-06     151.604E-06
            2578            2723     169.107E-06     151.604E-06
            2579            2724     165.238E-06     160.188E-06
            2595            2724     165.238E-06     160.188E-06
            2594            2724     165.238E-06     160.188E-06
            2578            2724     165.238E-06     160.188E-06
            2595            2725     161.548E-06     165.673E-06
            2579            2725     161.548E-06     165.673E-06
            2580            2725     161.548E-06     165.673E-06
            2596            2725     161.548E-06     165.673E-06
            2597            2726     162.804E-06     167.304E-06
            2596            2726     162.804E-06     167.304E-06
            2581            2726     162.804E-06     167.304E-06
            2580            2726     162.804E-06     167.304E-06
            2582            2727     165.610E-06     169.709E-06
            2581            2727     165.610E-06     169.709E-06
            2597            2727     165.610E-06     169.709E-06
            2598            2727     165.610E-06     169.709E-06
            2583            2728     168.850E-06     173.183E-06
            2598            2728     168.850E-06     173.183E-06
            2582            2728     168.850E-06     173.183E-06
            2599            2728     168.850E-06     173.183E-06
            2600            2729     172.939E-06     177.196E-06
            2584            2729     172.939E-06     177.196E-06
            2599            2729     172.939E-06     177.196E-06
            2583            2729     172.939E-06     177.196E-06
            2585            2730     177.805E-06     182.147E-06
            2601            2730     177.805E-06     182.147E-06
            2600            2730     177.805E-06     182.147E-06
            2584            2730     177.805E-06     182.147E-06
            2585            2731     183.449E-06     187.921E-06
            2586            2731     183.449E-06     187.921E-06
            2601            2731     183.449E-06     187.921E-06
            2602            2731     183.449E-06     187.921E-06
            2587            2732     190.460E-06     194.715E-06
            2586            2732     190.460E-06     194.715E-06
            2602            2732     190.460E-06     194.715E-06
            2603            2732     190.460E-06     194.715E-06
            2603            2733     197.773E-06     202.505E-06
            2587            2733     197.773E-06     202.505E-06
            2604            2733     197.773E-06     202.505E-06
            2588            2733     197.773E-06     202.505E-06
            2605            2734     205.318E-06     209.528E-06
            2588            2734     205.318E-06     209.528E-06
            2604            2734     205.318E-06     209.528E-06
            2589            2734     205.318E-06     209.528E-06
            2590            2735     207.126E-06     213.238E-06
            2606            2735     207.126E-06     213.238E-06
            2589            2735     207.126E-06     213.238E-06
            2605            2735     207.126E-06     213.238E-06
            2607            2736     187.361E-06     197.818E-06
            2591            2736     187.361E-06     197.818E-06
            2590            2736     187.361E-06     197.818E-06
            2606            2736     187.361E-06     197.818E-06
            2591            2737     167.589E-06     174.439E-06
            2592            2737     167.589E-06     174.439E-06
            2607            2737     167.589E-06     174.439E-06
            2608            2737     167.589E-06     174.439E-06
            2594            2738     172.218E-06     165.277E-06
            2593            2738     172.218E-06     165.277E-06
            2609            2738     172.218E-06     165.277E-06
            2610            2738     172.218E-06     165.277E-06
            2611            2739     167.775E-06     168.909E-06
            2594            2739     167.775E-06     168.909E-06
            2610            2739     167.775E-06     168.909E-06
            2595            2739     167.775E-06     168.909E-06
            2611            2740     169.030E-06     169.044E-06
            2596            2740     169.030E-06     169.044E-06
            2595            2740     169.030E-06     169.044E-06
            2612            2740     169.030E-06     169.044E-06
            2613            2741     171.403E-06     170.118E-06
            2596            2741     171.403E-06     170.118E-06
            2612            2741     171.403E-06     170.118E-06
            2597            2741     171.403E-06     170.118E-06
            2598            2742     174.199E-06     172.050E-06
            2614            2742     174.199E-06     172.050E-06
            2613            2742     174.199E-06     172.050E-06
            2597            2742     174.199E-06     172.050E-06
            2599            2743     177.652E-06     174.522E-06
            2614            2743     177.652E-06     174.522E-06
            2598            2743     177.652E-06     174.522E-06
            2615            2743     177.652E-06     174.522E-06
            2615            2744     181.504E-06     177.805E-06
            2600            2744     181.504E-06     177.805E-06
            2616            2744     181.504E-06     177.805E-06
            2599            2744     181.504E-06     177.805E-06
            2617            2745     185.912E-06     181.595E-06
            2600            2745     185.912E-06     181.595E-06
            2616            2745     185.912E-06     181.595E-06
            2601            2745     185.912E-06     181.595E-06
            2602            2746     190.938E-06     186.120E-06
            2618            2746     190.938E-06     186.120E-06
            2601            2746     190.938E-06     186.120E-06
            2617            2746     190.938E-06     186.120E-06
            2602            2747     196.467E-06     191.239E-06
            2618            2747     196.467E-06     191.239E-06
            2603            2747     196.467E-06     191.239E-06
            2619            2747     196.467E-06     191.239E-06
            2620            2748     202.238E-06     196.465E-06
            2603            2748     202.238E-06     196.465E-06
            2619            2748     202.238E-06     196.465E-06
            2604            2748     202.238E-06     196.465E-06
            2621            2749     206.126E-06     200.093E-06
            2605            2749     206.126E-06     200.093E-06
            2620            2749     206.126E-06     200.093E-06
            2604            2749     206.126E-06     200.093E-06
            2622            2750     201.703E-06     196.261E-06
            2621            2750     201.703E-06     196.261E-06
            2606            2750     201.703E-06     196.261E-06
            2605            2750     201.703E-06     196.261E-06
            2623            2751     166.935E-06     167.823E-06
            2607            2751     166.935E-06     167.823E-06
            2622            2751     166.935E-06     167.823E-06
            2606            2751     166.935E-06     167.823E-06
            2607            2752     113.563E-06     114.121E-06
            2608            2752     113.563E-06     114.121E-06
            2624            2752     113.563E-06     114.121E-06
            2623            2752     113.563E-06     114.121E-06
            2625            2753     168.557E-06     180.470E-06
            2626            2753     168.557E-06     180.470E-06
            2610            2753     168.557E-06     180.470E-06
            2609            2753     168.557E-06     180.470E-06
            2610            2754     172.485E-06     175.259E-06
            2626            2754     172.485E-06     175.259E-06
            2627            2754     172.485E-06     175.259E-06
            2611            2754     172.485E-06     175.259E-06
            2628            2755     177.257E-06     172.538E-06
            2611            2755     177.257E-06     172.538E-06
            2612            2755     177.257E-06     172.538E-06
            2627            2755     177.257E-06     172.538E-06
            2613            2756     180.581E-06     173.287E-06
            2628            2756     180.581E-06     173.287E-06
            2629            2756     180.581E-06     173.287E-06
            2612            2756     180.581E-06     173.287E-06
            2613            2757     183.582E-06     174.641E-06
            2614            2757     183.582E-06     174.641E-06
            2629            2757     183.582E-06     174.641E-06
            2630            2757     183.582E-06     174.641E-06
            2615            2758     187.019E-06     176.382E-06
            2630            2758     187.019E-06     176.382E-06
            2614            2758     187.019E-06     176.382E-06
            2631            2758     187.019E-06     176.382E-06
            2616            2759     190.575E-06     178.616E-06
            2615            2759     190.575E-06     178.616E-06
            2631            2759     190.575E-06     178.616E-06
            2632            2759     190.575E-06     178.616E-06
            2633            2760     194.294E-06     181.119E-06
            2632            2760     194.294E-06     181.119E-06
            2616            2760     194.294E-06     181.119E-06
            2617            2760     194.294E-06     181.119E-06
            2618            2761     197.997E-06     183.661E-06
            2634            2761     197.997E-06     183.661E-06
            2617            2761     197.997E-06     183.661E-06
            2633            2761     197.997E-06     183.661E-06
            2619            2762     201.045E-06     185.877E-06
            2634            2762     201.045E-06     185.877E-06
            2618            2762     201.045E-06     185.877E-06
            2635            2762     201.045E-06     185.877E-06
            2635            2763     202.831E-06     186.367E-06
            2619            2763     202.831E-06     186.367E-06
            2620            2763     202.831E-06     186.367E-06
            2636            2763     202.831E-06     186.367E-06
            2637            2764     199.895E-06     182.870E-06
            2620            2764     199.895E-06     182.870E-06
            2636            2764     199.895E-06     182.870E-06
            2621            2764     199.895E-06     182.870E-06
            2638            2765     186.810E-06     168.364E-06
            2621            2765     186.810E-06     168.364E-06
            2637            2765     186.810E-06     168.364E-06
            2622            2765     186.810E-06     168.364E-06
            2623            2766     154.161E-06     134.267E-06
            2639            2766     154.161E-06     134.267E-06
            2638            2766     154.161E-06     134.267E-06
            2622            2766     154.161E-06     134.267E-06
            2640            2767     87.9607E-06     94.1629E-06
            2639            2767     87.9607E-06     94.1629E-06
            2623            2767     87.9607E-06     94.1629E-06
            2624            2767     87.9607E-06     94.1629E-06
            3028            3027     37.7675E-03     47.0778E-03
            3027            3027     37.7675E-03     47.0778E-03
            3012            3027     37.7675E-03     47.0778E-03
            3011            3027     37.7675E-03     47.0778E-03
            3029            3028     42.2257E-03     55.8126E-03
            3028            3028     42.2257E-03     55.8126E-03
            3012            3028     42.2257E-03     55.8126E-03
            3013            3028     42.2257E-03     55.8126E-03
            3014            3029     52.2242E-03     67.7676E-03
            3029            3029     52.2242E-03     67.7676E-03
            3013            3029     52.2242E-03     67.7676E-03
            3030            3029     52.2242E-03     67.7676E-03
            3031            3030     64.5186E-03     81.0512E-03
            3014            3030     64.5186E-03     81.0512E-03
            3030            3030     64.5186E-03     81.0512E-03
            3015            3030     64.5186E-03     81.0512E-03
            3016            3031     77.7001E-03     94.6641E-03
            3031            3031     77.7001E-03     94.6641E-03
            3032            3031     77.7001E-03     94.6641E-03
            3015            3031     77.7001E-03     94.6641E-03
            3032            3032     91.3004E-03     108.618E-03
            3033            3032     91.3004E-03     108.618E-03
            3017            3032     91.3004E-03     108.618E-03
            3016            3032     91.3004E-03     108.618E-03
            3034            3033     105.254E-03     122.706E-03
            3018            3033     105.254E-03     122.706E-03
            3017            3033     105.254E-03     122.706E-03
            3033            3033     105.254E-03     122.706E-03
            3018            3034     119.350E-03     137.005E-03
            3035            3034     119.350E-03     137.005E-03
            3019            3034     119.350E-03     137.005E-03
            3034            3034     119.350E-03     137.005E-03
            3036            3035     133.646E-03     151.298E-03
            3019            3035     133.646E-03     151.298E-03
            3020            3035     133.646E-03     151.298E-03
            3035            3035     133.646E-03     151.298E-03
            3020            3036     147.989E-03     165.807E-03
            3036            3036     147.989E-03     165.807E-03
            3021            3036     147.989E-03     165.807E-03
            3037            3036     147.989E-03     165.807E-03
            3038            3037     162.459E-03     180.194E-03
            3037            3037     162.459E-03     180.194E-03
            3022            3037     162.459E-03     180.194E-03
            3021            3037     162.459E-03     180.194E-03
            3039            3038     177.119E-03     194.908E-03
            3023            3038     177.119E-03     194.908E-03
            3022            3038     177.119E-03     194.908E-03
            3038            3038     177.119E-03     194.908E-03
            3023            3039     191.234E-03     209.232E-03
            3040            3039     191.234E-03     209.232E-03
            3039            3039     191.234E-03     209.232E-03
            3024            3039     191.234E-03     209.232E-03
            3025            3040     206.656E-03     224.486E-03
            3040            3040     206.656E-03     224.486E-03
            3024            3040     206.656E-03     224.486E-03
            3041            3040     206.656E-03     224.486E-03
            3041            3041     234.836E-03     250.643E-03
            3026            3041     234.836E-03     250.643E-03
            3025            3041     234.836E-03     250.643E-03
            3042            3041     234.836E-03     250.643E-03
            3027            3042     50.9494E-03     48.8058E-03
            3043            3042     50.9494E-03     48.8058E-03
            3044            3042     50.9494E-03     48.8058E-03
            3028            3042     50.9494E-03     48.8058E-03
            3045            3043     58.3169E-03     52.9726E-03
            3044            3043     58.3169E-03     52.9726E-03
            3029            3043     58.3169E-03     52.9726E-03
            3028            3043     58.3169E-03     52.9726E-03
            3029            3044     69.0228E-03     62.0263E-03
            3030            3044     69.0228E-03     62.0263E-03
            3045            3044     69.0228E-03     62.0263E-03
            3046            3044     69.0228E-03     62.0263E-03
            3030            3045     81.1665E-03     73.5488E-03
            3031            3045     81.1665E-03     73.5488E-03
            3046            3045     81.1665E-03     73.5488E-03
            3047            3045     81.1665E-03     73.5488E-03
            3048            3046     94.1040E-03     85.9403E-03
            3047            3046     94.1040E-03     85.9403E-03
            3031            3046     94.1040E-03     85.9403E-03
            3032            3046     94.1040E-03     85.9403E-03
            3049            3047     107.550E-03     98.9982E-03
            3048            3047     107.550E-03     98.9982E-03
            3032            3047     107.550E-03     98.9982E-03
            3033            3047     107.550E-03     98.9982E-03
            3033            3048     121.249E-03     112.504E-03
            3034            3048     121.249E-03     112.504E-03
            3049            3048     121.249E-03     112.504E-03
            3050            3048     121.249E-03     112.504E-03
            3034            3049     135.212E-03     126.244E-03
            3051            3049     135.212E-03     126.244E-03
            3050            3049     135.212E-03     126.244E-03
            3035            3049     135.212E-03     126.244E-03
            3035            3050     149.238E-03     140.224E-03
            3036            3050     149.238E-03     140.224E-03
            3052            3050     149.238E-03     140.224E-03
            3051            3050     149.238E-03     140.224E-03
            3037            3051     163.449E-03     154.244E-03
            3036            3051     163.449E-03     154.244E-03
            3052            3051     163.449E-03     154.244E-03
            3053            3051     163.449E-03     154.244E-03
            3054            3052     177.533E-03     168.368E-03
            3053            3052     177.533E-03     168.368E-03
            3037            3052     177.533E-03     168.368E-03
            3038            3052     177.533E-03     168.368E-03
            3038            3053     191.765E-03     182.343E-03
            3054            3053     191.765E-03     182.343E-03
            3039            3053     191.765E-03     182.343E-03
            3055            3053     191.765E-03     182.343E-03
            3040            3054     206.019E-03     196.818E-03
            3056            3054     206.019E-03     196.818E-03
            3039            3054     206.019E-03     196.818E-03
            3055            3054     206.019E-03     196.818E-03
            3040            3055     221.248E-03     211.972E-03
            3056            3055     221.248E-03     211.972E-03
            3041            3055     221.248E-03     211.972E-03
            3057            3055     221.248E-03     211.972E-03
            3058            3056     221.960E-03     210.375E-03
            3042            3056     221.960E-03     210.375E-03
            3041            3056     221.960E-03     210.375E-03
            3057            3056     221.960E-03     210.375E-03
            3044            3057     41.8846E-03     44.6675E-03
            3060            3057     41.8846E-03     44.6675E-03
            3059            3057     41.8846E-03     44.6675E-03
            3043            3057     41.8846E-03     44.6675E-03
            3045            3058     49.1241E-03     47.2698E-03
            3061            3058     49.1241E-03     47.2698E-03
            3044            3058     49.1241E-03     47.2698E-03
            3060            3058     49.1241E-03     47.2698E-03
            3045            3059     56.0408E-03     52.8602E-03
            3061            3059     56.0408E-03     52.8602E-03
            3046            3059     56.0408E-03     52.8602E-03
            3062            3059     56.0408E-03     52.8602E-03
            3046            3060     63.9008E-03     60.6596E-03
            3063            3060     63.9008E-03     60.6596E-03
            3047            3060     63.9008E-03     60.6596E-03
            3062            3060     63.9008E-03     60.6596E-03
            3063            3061     72.5841E-03     69.3613E-03
            3047            3061     72.5841E-03     69.3613E-03
            3064            3061     72.5841E-03     69.3613E-03
            3048            3061     72.5841E-03     69.3613E-03
            3049            3062     81.8807E-03     78.6862E-03
            3064            3062     81.8807E-03     78.6862E-03
            3065            3062     81.8807E-03     78.6862E-03
            3048            3062     81.8807E-03     78.6862E-03
            3049            3063     91.5032E-03     88.3631E-03
            3065            3063     91.5032E-03     88.3631E-03
            3066            3063     91.5032E-03     88.3631E-03
            3050            3063     91.5032E-03     88.3631E-03
            3050            3064     101.403E-03     98.2180E-03
            3066            3064     101.403E-03     98.2180E-03
            3051            3064     101.403E-03     98.2180E-03
            3067            3064     101.403E-03     98.2180E-03
            3068            3065     111.403E-03     108.264E-03
            3052            3065     111.403E-03     108.264E-03
            3051            3065     111.403E-03     108.264E-03
            3067            3065     111.403E-03     108.264E-03
            3069            3066     121.517E-03     118.302E-03
            3068            3066     121.517E-03     118.302E-03
            3053            3066     121.517E-03     118.302E-03
            3052            3066     121.517E-03     118.302E-03
            3070            3067     131.905E-03     128.708E-03
            3053            3067     131.905E-03     128.708E-03
            3054            3067     131.905E-03     128.708E-03
            3069            3067     131.905E-03     128.708E-03
            3054            3068     142.756E-03     139.525E-03
            3055            3068     142.756E-03     139.525E-03
            3071            3068     142.756E-03     139.525E-03
            3070            3068     142.756E-03     139.525E-03
            3072            3069     156.666E-03     153.134E-03
            3071            3069     156.666E-03     153.134E-03
            3055            3069     156.666E-03     153.134E-03
            3056            3069     156.666E-03     153.134E-03
            3057            3070     172.914E-03     170.745E-03
            3072            3070     172.914E-03     170.745E-03
            3056            3070     172.914E-03     170.745E-03
            3073            3070     172.914E-03     170.745E-03
            3058            3071     191.976E-03     196.071E-03
            3074            3071     191.976E-03     196.071E-03
            3073            3071     191.976E-03     196.071E-03
            3057            3071     191.976E-03     196.071E-03
            3075            3072     33.9224E-03     40.6534E-03
            3076            3072     33.9224E-03     40.6534E-03
            3060            3072     33.9224E-03     40.6534E-03
            3059            3072     33.9224E-03     40.6534E-03
            3077            3073     34.4631E-03     42.2165E-03
            3061            3073     34.4631E-03     42.2165E-03
            3076            3073     34.4631E-03     42.2165E-03
            3060            3073     34.4631E-03     42.2165E-03
            3061            3074     37.2338E-03     46.1090E-03
            3077            3074     37.2338E-03     46.1090E-03
            3078            3074     37.2338E-03     46.1090E-03
            3062            3074     37.2338E-03     46.1090E-03
            3062            3075     40.8493E-03     51.1832E-03
            3079            3075     40.8493E-03     51.1832E-03
            3078            3075     40.8493E-03     51.1832E-03
            3063            3075     40.8493E-03     51.1832E-03
            3064            3076     45.3612E-03     56.8715E-03
            3079            3076     45.3612E-03     56.8715E-03
            3080            3076     45.3612E-03     56.8715E-03
            3063            3076     45.3612E-03     56.8715E-03
            3080            3077     50.5764E-03     62.8840E-03
            3081            3077     50.5764E-03     62.8840E-03
            3065            3077     50.5764E-03     62.8840E-03
            3064            3077     50.5764E-03     62.8840E-03
            3065            3078     56.2528E-03     69.0690E-03
            3081            3078     56.2528E-03     69.0690E-03
            3082            3078     56.2528E-03     69.0690E-03
            3066            3078     56.2528E-03     69.0690E-03
            3082            3079     62.2076E-03     75.4041E-03
            3067            3079     62.2076E-03     75.4041E-03
            3066            3079     62.2076E-03     75.4041E-03
            3083            3079     62.2076E-03     75.4041E-03
            3067            3080     68.2981E-03     81.7395E-03
            3068            3080     68.2981E-03     81.7395E-03
            3083            3080     68.2981E-03     81.7395E-03
            3084            3080     68.2981E-03     81.7395E-03
            3068            3081     74.6384E-03     88.2844E-03
            3084            3081     74.6384E-03     88.2844E-03
            3085            3081     74.6384E-03     88.2844E-03
            3069            3081     74.6384E-03     88.2844E-03
            3085            3082     81.2405E-03     95.0836E-03
            3086            3082     81.2405E-03     95.0836E-03
            3069            3082     81.2405E-03     95.0836E-03
            3070            3082     81.2405E-03     95.0836E-03
            3071            3083     89.6500E-03     103.558E-03
            3086            3083     89.6500E-03     103.558E-03
            3070            3083     89.6500E-03     103.558E-03
            3087            3083     89.6500E-03     103.558E-03
            3088            3084     101.355E-03     115.497E-03
            3071            3084     101.355E-03     115.497E-03
            3072            3084     101.355E-03     115.497E-03
            3087            3084     101.355E-03     115.497E-03
            3073            3085     124.354E-03     138.750E-03
            3072            3085     124.354E-03     138.750E-03
            3088            3085     124.354E-03     138.750E-03
            3089            3085     124.354E-03     138.750E-03
            3073            3086     176.002E-03     188.178E-03
            3090            3086     176.002E-03     188.178E-03
            3089            3086     176.002E-03     188.178E-03
            3074            3086     176.002E-03     188.178E-03
            3075            3087     42.5888E-03     40.7697E-03
            3076            3087     42.5888E-03     40.7697E-03
            3092            3087     42.5888E-03     40.7697E-03
            3091            3087     42.5888E-03     40.7697E-03
            3077            3088     40.7193E-03     43.7394E-03
            3093            3088     40.7193E-03     43.7394E-03
            3092            3088     40.7193E-03     43.7394E-03
            3076            3088     40.7193E-03     43.7394E-03
            3077            3089     42.3061E-03     47.3979E-03
            3094            3089     42.3061E-03     47.3979E-03
            3078            3089     42.3061E-03     47.3979E-03
            3093            3089     42.3061E-03     47.3979E-03
            3094            3090     45.8281E-03     52.1150E-03
            3095            3090     45.8281E-03     52.1150E-03
            3078            3090     45.8281E-03     52.1150E-03
            3079            3090     45.8281E-03     52.1150E-03
            3095            3091     50.2507E-03     57.4682E-03
            3079            3091     50.2507E-03     57.4682E-03
            3096            3091     50.2507E-03     57.4682E-03
            3080            3091     50.2507E-03     57.4682E-03
            3081            3092     55.4724E-03     63.2105E-03
            3096            3092     55.4724E-03     63.2105E-03
            3080            3092     55.4724E-03     63.2105E-03
            3097            3092     55.4724E-03     63.2105E-03
            3097            3093     61.1723E-03     69.3101E-03
            3098            3093     61.1723E-03     69.3101E-03
            3082            3093     61.1723E-03     69.3101E-03
            3081            3093     61.1723E-03     69.3101E-03
            3099            3094     67.1882E-03     75.6095E-03
            3098            3094     67.1882E-03     75.6095E-03
            3083            3094     67.1882E-03     75.6095E-03
            3082            3094     67.1882E-03     75.6095E-03
            3099            3095     73.4806E-03     82.1329E-03
            3100            3095     73.4806E-03     82.1329E-03
            3083            3095     73.4806E-03     82.1329E-03
            3084            3095     73.4806E-03     82.1329E-03
            3100            3096     79.9222E-03     88.8222E-03
            3084            3096     79.9222E-03     88.8222E-03
            3101            3096     79.9222E-03     88.8222E-03
            3085            3096     79.9222E-03     88.8222E-03
            3085            3097     86.7989E-03     95.9299E-03
            3086            3097     86.7989E-03     95.9299E-03
            3102            3097     86.7989E-03     95.9299E-03
            3101            3097     86.7989E-03     95.9299E-03
            3103            3098     94.2647E-03     103.802E-03
            3086            3098     94.2647E-03     103.802E-03
            3102            3098     94.2647E-03     103.802E-03
            3087            3098     94.2647E-03     103.802E-03
            3087            3099     104.753E-03     113.956E-03
            3103            3099     104.753E-03     113.956E-03
            3104            3099     104.753E-03     113.956E-03
            3088            3099     104.753E-03     113.956E-03
            3105            3100     126.379E-03     132.707E-03
            3088            3100     126.379E-03     132.707E-03
            3089            3100     126.379E-03     132.707E-03
            3104            3100     126.379E-03     132.707E-03
            3106            3101     161.533E-03     162.445E-03
            3105            3101     161.533E-03     162.445E-03
            3090            3101     161.533E-03     162.445E-03
            3089            3101     161.533E-03     162.445E-03
            3107            3102     47.5347E-03     43.3192E-03
            3091            3102     47.5347E-03     43.3192E-03
            3092            3102     47.5347E-03     43.3192E-03
            3108            3102     47.5347E-03     43.3192E-03
            3108            3103     46.6676E-03     45.3540E-03
            3109            3103     46.6676E-03     45.3540E-03
            3092            3103     46.6676E-03     45.3540E-03
            3093            3103     46.6676E-03     45.3540E-03
            3110            3104     47.4854E-03     49.2304E-03
            3109            3104     47.4854E-03     49.2304E-03
            3093            3104     47.4854E-03     49.2304E-03
            3094            3104     47.4854E-03     49.2304E-03
            3111            3105     50.5001E-03     53.4504E-03
            3110            3105     50.5001E-03     53.4504E-03
            3094            3105     50.5001E-03     53.4504E-03
            3095            3105     50.5001E-03     53.4504E-03
            3112            3106     54.9783E-03     58.2268E-03
            3111            3106     54.9783E-03     58.2268E-03
            3095            3106     54.9783E-03     58.2268E-03
            3096            3106     54.9783E-03     58.2268E-03
            3112            3107     60.1198E-03     63.6443E-03
            3096            3107     60.1198E-03     63.6443E-03
            3113            3107     60.1198E-03     63.6443E-03
            3097            3107     60.1198E-03     63.6443E-03
            3097            3108     65.7713E-03     69.4894E-03
            3113            3108     65.7713E-03     69.4894E-03
            3098            3108     65.7713E-03     69.4894E-03
            3114            3108     65.7713E-03     69.4894E-03
            3114            3109     71.8474E-03     75.7261E-03
            3099            3109     71.8474E-03     75.7261E-03
            3115            3109     71.8474E-03     75.7261E-03
            3098            3109     71.8474E-03     75.7261E-03
            3099            3110     78.2711E-03     82.3223E-03
            3115            3110     78.2711E-03     82.3223E-03
            3116            3110     78.2711E-03     82.3223E-03
            3100            3110     78.2711E-03     82.3223E-03
            3101            3111     84.9855E-03     89.2054E-03
            3116            3111     84.9855E-03     89.2054E-03
            3100            3111     84.9855E-03     89.2054E-03
            3117            3111     84.9855E-03     89.2054E-03
            3117            3112     91.9518E-03     96.4480E-03
            3102            3112     91.9518E-03     96.4480E-03
            3118            3112     91.9518E-03     96.4480E-03
            3101            3112     91.9518E-03     96.4480E-03
            3102            3113     98.5872E-03     103.522E-03
            3118            3113     98.5872E-03     103.522E-03
            3119            3113     98.5872E-03     103.522E-03
            3103            3113     98.5872E-03     103.522E-03
            3103            3114     105.936E-03     110.830E-03
            3104            3114     105.936E-03     110.830E-03
            3120            3114     105.936E-03     110.830E-03
            3119            3114     105.936E-03     110.830E-03
            3121            3115     115.621E-03     119.182E-03
            3104            3115     115.621E-03     119.182E-03
            3105            3115     115.621E-03     119.182E-03
            3120            3115     115.621E-03     119.182E-03
            3106            3116     133.685E-03     136.907E-03
            3122            3116     133.685E-03     136.907E-03
            3121            3116     133.685E-03     136.907E-03
            3105            3116     133.685E-03     136.907E-03
            3124            3117     51.5235E-03     47.0196E-03
            3107            3117     51.5235E-03     47.0196E-03
            3123            3117     51.5235E-03     47.0196E-03
            3108            3117     51.5235E-03     47.0196E-03
            3124            3118     50.7063E-03     48.9670E-03
            3108            3118     50.7063E-03     48.9670E-03
            3109            3118     50.7063E-03     48.9670E-03
            3125            3118     50.7063E-03     48.9670E-03
            3110            3119     51.9047E-03     51.7085E-03
            3125            3119     51.9047E-03     51.7085E-03
            3109            3119     51.9047E-03     51.7085E-03
            3126            3119     51.9047E-03     51.7085E-03
            3110            3120     55.1771E-03     55.0091E-03
            3127            3120     55.1771E-03     55.0091E-03
            3111            3120     55.1771E-03     55.0091E-03
            3126            3120     55.1771E-03     55.0091E-03
            3128            3121     59.5456E-03     59.2046E-03
            3127            3121     59.5456E-03     59.2046E-03
            3111            3121     59.5456E-03     59.2046E-03
            3112            3121     59.5456E-03     59.2046E-03
            3112            3122     64.5044E-03     64.0811E-03
            3128            3122     64.5044E-03     64.0811E-03
            3113            3122     64.5044E-03     64.0811E-03
            3129            3122     64.5044E-03     64.0811E-03
            3114            3123     69.9609E-03     69.4916E-03
            3129            3123     69.9609E-03     69.4916E-03
            3130            3123     69.9609E-03     69.4916E-03
            3113            3123     69.9609E-03     69.4916E-03
            3114            3124     75.8579E-03     75.3786E-03
            3130            3124     75.8579E-03     75.3786E-03
            3115            3124     75.8579E-03     75.3786E-03
            3131            3124     75.8579E-03     75.3786E-03
            3115            3125     82.1272E-03     81.6513E-03
            3132            3125     82.1272E-03     81.6513E-03
            3116            3125     82.1272E-03     81.6513E-03
            3131            3125     82.1272E-03     81.6513E-03
            3133            3126     88.7831E-03     88.3371E-03
            3116            3126     88.7831E-03     88.3371E-03
            3117            3126     88.7831E-03     88.3371E-03
            3132            3126     88.7831E-03     88.3371E-03
            3117            3127     95.1545E-03     94.9011E-03
            3133            3127     95.1545E-03     94.9011E-03
            3118            3127     95.1545E-03     94.9011E-03
            3134            3127     95.1545E-03     94.9011E-03
            3118            3128     101.125E-03     100.999E-03
            3134            3128     101.125E-03     100.999E-03
            3119            3128     101.125E-03     100.999E-03
            3135            3128     101.125E-03     100.999E-03
            3119            3129     102.636E-03     103.932E-03
            3120            3129     102.636E-03     103.932E-03
            3135            3129     102.636E-03     103.932E-03
            3136            3129     102.636E-03     103.932E-03
            3120            3130     98.9246E-03     101.853E-03
            3137            3130     98.9246E-03     101.853E-03
            3121            3130     98.9246E-03     101.853E-03
            3136            3130     98.9246E-03     101.853E-03
            3137            3131     107.609E-03     107.614E-03
            3138            3131     107.609E-03     107.614E-03
            3122            3131     107.609E-03     107.614E-03
            3121            3131     107.609E-03     107.614E-03
            3124            3132     54.5307E-03     53.1786E-03
            3140            3132     54.5307E-03     53.1786E-03
            3123            3132     54.5307E-03     53.1786E-03
            3139            3132     54.5307E-03     53.1786E-03
            3140            3133     53.4183E-03     53.7301E-03
            3124            3133     53.4183E-03     53.7301E-03
            3125            3133     53.4183E-03     53.7301E-03
            3141            3133     53.4183E-03     53.7301E-03
            3126            3134     56.0987E-03     54.4456E-03
            3141            3134     56.0987E-03     54.4456E-03
            3125            3134     56.0987E-03     54.4456E-03
            3142            3134     56.0987E-03     54.4456E-03
            3127            3135     59.9069E-03     56.8602E-03
            3126            3135     59.9069E-03     56.8602E-03
            3143            3135     59.9069E-03     56.8602E-03
            3142            3135     59.9069E-03     56.8602E-03
            3143            3136     64.0182E-03     60.4148E-03
            3127            3136     64.0182E-03     60.4148E-03
            3128            3136     64.0182E-03     60.4148E-03
            3144            3136     64.0182E-03     60.4148E-03
            3128            3137     68.6756E-03     64.5964E-03
            3144            3137     68.6756E-03     64.5964E-03
            3129            3137     68.6756E-03     64.5964E-03
            3145            3137     68.6756E-03     64.5964E-03
            3145            3138     73.7301E-03     69.3242E-03
            3129            3138     73.7301E-03     69.3242E-03
            3130            3138     73.7301E-03     69.3242E-03
            3146            3138     73.7301E-03     69.3242E-03
            3131            3139     79.1205E-03     74.4452E-03
            3146            3139     79.1205E-03     74.4452E-03
            3147            3139     79.1205E-03     74.4452E-03
            3130            3139     79.1205E-03     74.4452E-03
            3132            3140     84.8318E-03     79.9076E-03
            3147            3140     84.8318E-03     79.9076E-03
            3131            3140     84.8318E-03     79.9076E-03
            3148            3140     84.8318E-03     79.9076E-03
            3149            3141     90.5496E-03     85.4353E-03
            3133            3141     90.5496E-03     85.4353E-03
            3148            3141     90.5496E-03     85.4353E-03
            3132            3141     90.5496E-03     85.4353E-03
            3134            3142     96.0517E-03     90.7114E-03
            3149            3142     96.0517E-03     90.7114E-03
            3133            3142     96.0517E-03     90.7114E-03
            3150            3142     96.0517E-03     90.7114E-03
            3135            3143     99.5231E-03     94.3013E-03
            3150            3143     99.5231E-03     94.3013E-03
            3151            3143     99.5231E-03     94.3013E-03
            3134            3143     99.5231E-03     94.3013E-03
            3135            3144     98.4316E-03     93.9153E-03
            3151            3144     98.4316E-03     93.9153E-03
            3152            3144     98.4316E-03     93.9153E-03
            3136            3144     98.4316E-03     93.9153E-03
            3136            3145     85.8331E-03     83.7147E-03
            3153            3145     85.8331E-03     83.7147E-03
            3137            3145     85.8331E-03     83.7147E-03
            3152            3145     85.8331E-03     83.7147E-03
            3138            3146     81.3456E-03     80.0532E-03
            3153            3146     81.3456E-03     80.0532E-03
            3137            3146     81.3456E-03     80.0532E-03
            3154            3146     81.3456E-03     80.0532E-03
            3139            3147     55.1088E-03     60.0664E-03
            3140            3147     55.1088E-03     60.0664E-03
            3155            3147     55.1088E-03     60.0664E-03
            3156            3147     55.1088E-03     60.0664E-03
            3157            3148     57.4770E-03     57.0811E-03
            3140            3148     57.4770E-03     57.0811E-03
            3156            3148     57.4770E-03     57.0811E-03
            3141            3148     57.4770E-03     57.0811E-03
            3157            3149     61.0383E-03     57.2077E-03
            3141            3149     61.0383E-03     57.2077E-03
            3158            3149     61.0383E-03     57.2077E-03
            3142            3149     61.0383E-03     57.2077E-03
            3158            3150     64.5819E-03     59.1423E-03
            3142            3150     64.5819E-03     59.1423E-03
            3143            3150     64.5819E-03     59.1423E-03
            3159            3150     64.5819E-03     59.1423E-03
            3144            3151     68.4823E-03     61.9585E-03
            3159            3151     68.4823E-03     61.9585E-03
            3143            3151     68.4823E-03     61.9585E-03
            3160            3151     68.4823E-03     61.9585E-03
            3145            3152     72.7471E-03     65.4042E-03
            3160            3152     72.7471E-03     65.4042E-03
            3161            3152     72.7471E-03     65.4042E-03
            3144            3152     72.7471E-03     65.4042E-03
            3145            3153     77.2626E-03     69.2477E-03
            3161            3153     77.2626E-03     69.2477E-03
            3162            3153     77.2626E-03     69.2477E-03
            3146            3153     77.2626E-03     69.2477E-03
            3146            3154     81.9629E-03     73.3270E-03
            3162            3154     81.9629E-03     73.3270E-03
            3163            3154     81.9629E-03     73.3270E-03
            3147            3154     81.9629E-03     73.3270E-03
            3163            3155     86.5854E-03     77.4348E-03
            3147            3155     86.5854E-03     77.4348E-03
            3148            3155     86.5854E-03     77.4348E-03
            3164            3155     86.5854E-03     77.4348E-03
            3164            3156     90.8904E-03     81.1375E-03
            3148            3156     90.8904E-03     81.1375E-03
            3149            3156     90.8904E-03     81.1375E-03
            3165            3156     90.8904E-03     81.1375E-03
            3149            3157     94.1645E-03     83.8714E-03
            3165            3157     94.1645E-03     83.8714E-03
            3166            3157     94.1645E-03     83.8714E-03
            3150            3157     94.1645E-03     83.8714E-03
            3167            3158     94.9770E-03     84.0563E-03
            3166            3158     94.9770E-03     84.0563E-03
            3150            3158     94.9770E-03     84.0563E-03
            3151            3158     94.9770E-03     84.0563E-03
            3152            3159     91.4525E-03     79.6463E-03
            3167            3159     91.4525E-03     79.6463E-03
            3168            3159     91.4525E-03     79.6463E-03
            3151            3159     91.4525E-03     79.6463E-03
            3153            3160     77.3740E-03     65.9076E-03
            3168            3160     77.3740E-03     65.9076E-03
            3152            3160     77.3740E-03     65.9076E-03
            3169            3160     77.3740E-03     65.9076E-03
            3169            3161     63.2314E-03     60.7146E-03
            3170            3161     63.2314E-03     60.7146E-03
            3153            3161     63.2314E-03     60.7146E-03
            3154            3161     63.2314E-03     60.7146E-03
            3172            3162     31.3557E-03     34.9993E-03
            3171            3162     31.3557E-03     34.9993E-03
            3155            3162     31.3557E-03     34.9993E-03
            3156            3162     31.3557E-03     34.9993E-03
            3157            3163     34.0518E-03     33.2662E-03
            3173            3163     34.0518E-03     33.2662E-03
            3156            3163     34.0518E-03     33.2662E-03
            3172            3163     34.0518E-03     33.2662E-03
            3174            3164     35.7215E-03     33.4408E-03
            3158            3164     35.7215E-03     33.4408E-03
            3173            3164     35.7215E-03     33.4408E-03
            3157            3164     35.7215E-03     33.4408E-03
            3158            3165     37.5431E-03     34.5239E-03
            3174            3165     37.5431E-03     34.5239E-03
            3159            3165     37.5431E-03     34.5239E-03
            3175            3165     37.5431E-03     34.5239E-03
            3176            3166     39.5683E-03     35.8938E-03
            3175            3166     39.5683E-03     35.8938E-03
            3159            3166     39.5683E-03     35.8938E-03
            3160            3166     39.5683E-03     35.8938E-03
            3161            3167     41.8027E-03     37.6162E-03
            3160            3167     41.8027E-03     37.6162E-03
            3177            3167     41.8027E-03     37.6162E-03
            3176            3167     41.8027E-03     37.6162E-03
            3162            3168     44.1354E-03     39.5250E-03
            3161            3168     44.1354E-03     39.5250E-03
            3177            3168     44.1354E-03     39.5250E-03
            3178            3168     44.1354E-03     39.5250E-03
            3179            3169     46.5202E-03     41.5024E-03
            3178            3169     46.5202E-03     41.5024E-03
            3162            3169     46.5202E-03     41.5024E-03
            3163            3169     46.5202E-03     41.5024E-03
            3163            3170     48.7788E-03     43.4101E-03
            3164            3170     48.7788E-03     43.4101E-03
            3180            3170     48.7788E-03     43.4101E-03
            3179            3170     48.7788E-03     43.4101E-03
            3165            3171     50.7736E-03     45.0263E-03
            3164            3171     50.7736E-03     45.0263E-03
            3180            3171     50.7736E-03     45.0263E-03
            3181            3171     50.7736E-03     45.0263E-03
            3166            3172     51.9479E-03     45.8020E-03
            3165            3172     51.9479E-03     45.8020E-03
            3182            3172     51.9479E-03     45.8020E-03
            3181            3172     51.9479E-03     45.8020E-03
            3167            3173     52.0797E-03     45.3588E-03
            3182            3173     52.0797E-03     45.3588E-03
            3166            3173     52.0797E-03     45.3588E-03
            3183            3173     52.0797E-03     45.3588E-03
            3167            3174     49.4575E-03     42.0126E-03
            3183            3174     49.4575E-03     42.0126E-03
            3168            3174     49.4575E-03     42.0126E-03
            3184            3174     49.4575E-03     42.0126E-03
            3168            3175     43.7321E-03     35.2689E-03
            3169            3175     43.7321E-03     35.2689E-03
            3184            3175     43.7321E-03     35.2689E-03
            3185            3175     43.7321E-03     35.2689E-03
            3186            3176     35.7965E-03     34.3260E-03
            3170            3176     35.7965E-03     34.3260E-03
            3185            3176     35.7965E-03     34.3260E-03
            3169            3176     35.7965E-03     34.3260E-03


  Minimum                            44.7854E-06     76.6045E-06
      At Element                            2640            2640
            Node                             566             566

  Maximum                            409.652E-03     426.908E-03
      At Element                            1073            1768
            Node                             317              16

           Total                         388.207         400.302


Field Output reported at element nodes for region: CRJ700-1.Region_4
   Computation algorithm: EXTRAPOLATE_COMPUTE_AVERAGE
   Averaged at nodes
   Averaging regions: ODB_REGIONS

   Element Label      Node Label         S.Mises         S.Mises
                                          @Loc 1          @Loc 2
-----------------------------------------------------------------
            1089               1     2.26250E-03     2.37430E-03
             545               1     2.26250E-03     2.37430E-03
            1688               4     37.3922E-03     41.9475E-03
            1617               4     37.3922E-03     41.9475E-03
            1074               5     3.50382E-03     3.62999E-03
             560               5     3.50382E-03     3.62999E-03
             640               6     47.6443E-06     102.842E-06
             625               7     155.127E-06     191.663E-06
            1673              11     344.781E-03     358.062E-03
            1602              11     344.781E-03     358.062E-03
            2656              18     55.8709E-03     53.3806E-03
            1752              18     55.8709E-03     53.3806E-03
            1737              20     411.234E-03     438.456E-03
            2641              20     411.234E-03     438.456E-03
            2720              22     45.4769E-03     45.2490E-03
            2384              22     45.4769E-03     45.2490E-03
            2369              23     268.997E-03     281.696E-03
            2705              23     268.997E-03     281.696E-03
            2529              26     6.23628E-03     6.38315E-03
            2915              26     6.23628E-03     6.38315E-03
            2544              30     144.577E-06     406.552E-06
            2930              30     144.577E-06     406.552E-06
            3010              32     154.843E-06     191.321E-06
            2995              34     47.4694E-06     102.847E-06
            1601              99     27.0388E-03     37.2731E-03
            1617              99     27.0388E-03     37.2731E-03
            1585             100     22.7545E-03     35.3555E-03
            1601             100     22.7545E-03     35.3555E-03
            1585             101     29.6838E-03     34.8014E-03
            1569             101     29.6838E-03     34.8014E-03
            1553             102     38.3186E-03     45.5462E-03
            1569             102     38.3186E-03     45.5462E-03
            1537             103     48.2920E-03     57.8847E-03
            1553             103     48.2920E-03     57.8847E-03
            1537             104     41.0604E-03     45.9517E-03
            1521             104     41.0604E-03     45.9517E-03
            1505             105     22.1175E-03     30.5593E-03
            1521             105     22.1175E-03     30.5593E-03
            1489             106     19.5716E-03     27.7198E-03
            1505             106     19.5716E-03     27.7198E-03
            1473             107     23.4835E-03     29.3071E-03
            1489             107     23.4835E-03     29.3071E-03
            1457             108     30.2058E-03     32.9568E-03
            1473             108     30.2058E-03     32.9568E-03
            1457             109     38.1304E-03     42.6140E-03
            1441             109     38.1304E-03     42.6140E-03
            1441             110     45.3456E-03     53.6400E-03
            1425             110     45.3456E-03     53.6400E-03
            1425             111     33.6435E-03     39.5917E-03
            1409             111     33.6435E-03     39.5917E-03
            1409             112     16.2313E-03     22.3046E-03
            1393             112     16.2313E-03     22.3046E-03
            1393             113     17.1178E-03     21.1355E-03
            1377             113     17.1178E-03     21.1355E-03
            1361             114     21.0307E-03     23.8338E-03
            1377             114     21.0307E-03     23.8338E-03
            1345             115     26.4417E-03     26.9787E-03
            1361             115     26.4417E-03     26.9787E-03
            1345             116     32.2920E-03     34.3770E-03
            1329             116     32.2920E-03     34.3770E-03
            1329             117     36.7254E-03     43.0227E-03
            1313             117     36.7254E-03     43.0227E-03
            1313             118     24.5569E-03     31.4175E-03
            1297             118     24.5569E-03     31.4175E-03
            1281             119     13.2171E-03     17.0606E-03
            1297             119     13.2171E-03     17.0606E-03
            1281             120     17.2552E-03     17.6883E-03
            1265             120     17.2552E-03     17.6883E-03
            1249             121     20.7903E-03     19.5969E-03
            1265             121     20.7903E-03     19.5969E-03
            1249             122     24.7703E-03     24.4924E-03
            1233             122     24.7703E-03     24.4924E-03
            1233             123     26.7588E-03     30.5824E-03
            1217             123     26.7588E-03     30.5824E-03
            1217             124     18.8252E-03     24.8692E-03
            1201             124     18.8252E-03     24.8692E-03
            1185             125     13.7063E-03     17.0856E-03
            1201             125     13.7063E-03     17.0856E-03
            1185             126     17.9605E-03     15.9934E-03
            1169             126     17.9605E-03     15.9934E-03
            1153             127     19.2462E-03     17.4697E-03
            1169             127     19.2462E-03     17.4697E-03
            1137             128     20.8682E-03     18.5853E-03
            1153             128     20.8682E-03     18.5853E-03
            1137             129     22.5303E-03     20.9484E-03
            1121             129     22.5303E-03     20.9484E-03
            1121             130     21.5637E-03     24.9853E-03
            1105             130     21.5637E-03     24.9853E-03
            1105             131     12.2295E-03     15.2452E-03
            1089             131     12.2295E-03     15.2452E-03
             546             132     2.27482E-03     2.38258E-03
            1088             132     2.27482E-03     2.38258E-03
             545             132     2.27482E-03     2.38258E-03
            1089             132     2.27482E-03     2.38258E-03
             546             133     2.30214E-03     2.40634E-03
            1087             133     2.30214E-03     2.40634E-03
             547             133     2.30214E-03     2.40634E-03
            1088             133     2.30214E-03     2.40634E-03
            1087             134     2.33636E-03     2.44296E-03
             547             134     2.33636E-03     2.44296E-03
            1086             134     2.33636E-03     2.44296E-03
             548             134     2.33636E-03     2.44296E-03
            1086             135     2.38062E-03     2.48990E-03
             549             135     2.38062E-03     2.48990E-03
            1085             135     2.38062E-03     2.48990E-03
             548             135     2.38062E-03     2.48990E-03
            1085             136     2.43457E-03     2.54591E-03
            1084             136     2.43457E-03     2.54591E-03
             549             136     2.43457E-03     2.54591E-03
             550             136     2.43457E-03     2.54591E-03
             551             137     2.49757E-03     2.61061E-03
             550             137     2.49757E-03     2.61061E-03
            1083             137     2.49757E-03     2.61061E-03
            1084             137     2.49757E-03     2.61061E-03
             551             138     2.56921E-03     2.68311E-03
            1082             138     2.56921E-03     2.68311E-03
             552             138     2.56921E-03     2.68311E-03
            1083             138     2.56921E-03     2.68311E-03
            1082             139     2.64872E-03     2.76309E-03
            1081             139     2.64872E-03     2.76309E-03
             552             139     2.64872E-03     2.76309E-03
             553             139     2.64872E-03     2.76309E-03
             554             140     2.73513E-03     2.84959E-03
            1080             140     2.73513E-03     2.84959E-03
            1081             140     2.73513E-03     2.84959E-03
             553             140     2.73513E-03     2.84959E-03
             555             141     2.82810E-03     2.94218E-03
            1079             141     2.82810E-03     2.94218E-03
            1080             141     2.82810E-03     2.94218E-03
             554             141     2.82810E-03     2.94218E-03
            1079             142     2.92607E-03     3.03989E-03
            1078             142     2.92607E-03     3.03989E-03
             556             142     2.92607E-03     3.03989E-03
             555             142     2.92607E-03     3.03989E-03
             556             143     3.02958E-03     3.14271E-03
             557             143     3.02958E-03     3.14271E-03
            1078             143     3.02958E-03     3.14271E-03
            1077             143     3.02958E-03     3.14271E-03
            1076             144     3.13888E-03     3.25183E-03
            1077             144     3.13888E-03     3.25183E-03
             557             144     3.13888E-03     3.25183E-03
             558             144     3.13888E-03     3.25183E-03
             558             145     3.25868E-03     3.37252E-03
             559             145     3.25868E-03     3.37252E-03
            1076             145     3.25868E-03     3.37252E-03
            1075             145     3.25868E-03     3.37252E-03
             559             146     3.41354E-03     3.53361E-03
            1075             146     3.41354E-03     3.53361E-03
             560             146     3.41354E-03     3.53361E-03
            1074             146     3.41354E-03     3.53361E-03
             576             147     330.714E-06     347.722E-06
             560             147     330.714E-06     347.722E-06
             592             148     250.592E-06     248.871E-06
             576             148     250.592E-06     248.871E-06
             608             149     166.192E-06     168.438E-06
             592             149     166.192E-06     168.438E-06
             624             150     90.7798E-06     85.0228E-06
             608             150     90.7798E-06     85.0228E-06
             624             151     45.3393E-06     77.0169E-06
             640             151     45.3393E-06     77.0169E-06
             640             152     87.9145E-06     98.1629E-06
             639             152     87.9145E-06     98.1629E-06
             639             153     143.997E-06     115.202E-06
             638             153     143.997E-06     115.202E-06
             638             154     177.106E-06     152.519E-06
             637             154     177.106E-06     152.519E-06
             636             155     196.335E-06     172.926E-06
             637             155     196.335E-06     172.926E-06
             636             156     202.213E-06     181.136E-06
             635             156     202.213E-06     181.136E-06
             635             157     204.001E-06     183.476E-06
             634             157     204.001E-06     183.476E-06
             634             158     201.729E-06     182.837E-06
             633             158     201.729E-06     182.837E-06
             633             159     199.162E-06     181.521E-06
             632             159     199.162E-06     181.521E-06
             631             160     195.609E-06     179.467E-06
             632             160     195.609E-06     179.467E-06
             631             161     192.230E-06     177.976E-06
             630             161     192.230E-06     177.976E-06
             629             162     188.893E-06     176.293E-06
             630             162     188.893E-06     176.293E-06
             628             163     185.504E-06     175.512E-06
             629             163     185.504E-06     175.512E-06
             627             164     182.001E-06     174.817E-06
             628             164     182.001E-06     174.817E-06
             627             165     178.024E-06     176.526E-06
             626             165     178.024E-06     176.526E-06
             625             166     165.173E-06     185.160E-06
             626             166     165.173E-06     185.160E-06
             625             167     167.689E-06     183.189E-06
             609             167     167.689E-06     183.189E-06
             609             168     176.728E-06     161.853E-06
             593             168     176.728E-06     161.853E-06
             577             169     169.767E-06     147.862E-06
             593             169     169.767E-06     147.862E-06
             561             170     164.432E-06     148.228E-06
             577             170     164.432E-06     148.228E-06
             561             171     145.013E-06     154.999E-06
             545             171     145.013E-06     154.999E-06
            1074             194     14.2682E-03     16.6429E-03
            1090             194     14.2682E-03     16.6429E-03
            1090             195     26.7786E-03     28.7739E-03
            1106             195     26.7786E-03     28.7739E-03
            1106             196     37.6851E-03     36.6074E-03
            1122             196     37.6851E-03     36.6074E-03
            1122             197     49.7650E-03     48.5027E-03
            1138             197     49.7650E-03     48.5027E-03
            1154             198     60.7848E-03     62.3466E-03
            1138             198     60.7848E-03     62.3466E-03
            1154             199     74.8511E-03     73.9680E-03
            1170             199     74.8511E-03     73.9680E-03
            1186             200     86.6279E-03     90.5666E-03
            1170             200     86.6279E-03     90.5666E-03
            1186             201     82.5581E-03     85.5027E-03
            1202             201     82.5581E-03     85.5027E-03
            1218             202     83.5812E-03     80.8351E-03
            1202             202     83.5812E-03     80.8351E-03
            1218             203     101.798E-03     102.142E-03
            1234             203     101.798E-03     102.142E-03
            1234             204     117.004E-03     119.789E-03
            1250             204     117.004E-03     119.789E-03
            1250             205     132.417E-03     132.560E-03
            1266             205     132.417E-03     132.560E-03
            1282             206     144.981E-03     149.067E-03
            1266             206     144.981E-03     149.067E-03
            1282             207     140.816E-03     144.822E-03
            1298             207     140.816E-03     144.822E-03
            1298             208     144.553E-03     140.739E-03
            1314             208     144.553E-03     140.739E-03
            1314             209     162.387E-03     164.420E-03
            1330             209     162.387E-03     164.420E-03
            1330             210     179.636E-03     181.093E-03
            1346             210     179.636E-03     181.093E-03
            1346             211     192.747E-03     197.253E-03
            1362             211     192.747E-03     197.253E-03
            1362             212     207.814E-03     208.752E-03
            1378             212     207.814E-03     208.752E-03
            1394             213     219.114E-03     223.207E-03
            1378             213     219.114E-03     223.207E-03
            1394             214     212.164E-03     217.816E-03
            1410             214     212.164E-03     217.816E-03
            1410             215     216.638E-03     212.723E-03
            1426             215     216.638E-03     212.723E-03
            1426             216     235.751E-03     238.640E-03
            1442             216     235.751E-03     238.640E-03
            1458             217     253.696E-03     256.502E-03
            1442             217     253.696E-03     256.502E-03
            1458             218     267.029E-03     272.915E-03
            1474             218     267.029E-03     272.915E-03
            1490             219     281.937E-03     283.672E-03
            1474             219     281.937E-03     283.672E-03
            1506             220     292.372E-03     296.520E-03
            1490             220     292.372E-03     296.520E-03
            1506             221     283.669E-03     291.042E-03
            1522             221     283.669E-03     291.042E-03
            1522             222     288.495E-03     286.313E-03
            1538             222     288.495E-03     286.313E-03
            1554             223     311.400E-03     313.397E-03
            1538             223     311.400E-03     313.397E-03
            1570             224     327.317E-03     336.163E-03
            1554             224     327.317E-03     336.163E-03
            1586             225     343.694E-03     345.358E-03
            1570             225     343.694E-03     345.358E-03
            1602             226     352.980E-03     358.110E-03
            1586             226     352.980E-03     358.110E-03
            1752             339     67.6318E-03     57.6685E-03
            1736             339     67.6318E-03     57.6685E-03
            1736             340     80.5264E-03     75.4171E-03
            1720             340     80.5264E-03     75.4171E-03
            1720             341     100.493E-03     104.970E-03
            1704             341     100.493E-03     104.970E-03
            1688             342     76.7730E-03     80.4327E-03
            1704             342     76.7730E-03     80.4327E-03
            1688             343     43.8001E-03     49.7764E-03
            1687             343     43.8001E-03     49.7764E-03
            1616             343     43.8001E-03     49.7764E-03
            1617             343     43.8001E-03     49.7764E-03
            1615             344     58.7085E-03     66.8415E-03
            1616             344     58.7085E-03     66.8415E-03
            1687             344     58.7085E-03     66.8415E-03
            1686             344     58.7085E-03     66.8415E-03
            1686             345     76.5018E-03     85.6183E-03
            1685             345     76.5018E-03     85.6183E-03
            1614             345     76.5018E-03     85.6183E-03
            1615             345     76.5018E-03     85.6183E-03
            1613             346     95.4412E-03     104.989E-03
            1685             346     95.4412E-03     104.989E-03
            1684             346     95.4412E-03     104.989E-03
            1614             346     95.4412E-03     104.989E-03
            1684             347     114.924E-03     124.621E-03
            1683             347     114.924E-03     124.621E-03
            1612             347     114.924E-03     124.621E-03
            1613             347     114.924E-03     124.621E-03
            1683             348     134.597E-03     144.339E-03
            1682             348     134.597E-03     144.339E-03
            1612             348     134.597E-03     144.339E-03
            1611             348     134.597E-03     144.339E-03
            1611             349     154.385E-03     164.089E-03
            1682             349     154.385E-03     164.089E-03
            1610             349     154.385E-03     164.089E-03
            1681             349     154.385E-03     164.089E-03
            1609             350     174.108E-03     183.833E-03
            1680             350     174.108E-03     183.833E-03
            1681             350     174.108E-03     183.833E-03
            1610             350     174.108E-03     183.833E-03
            1679             351     193.832E-03     203.475E-03
            1680             351     193.832E-03     203.475E-03
            1608             351     193.832E-03     203.475E-03
            1609             351     193.832E-03     203.475E-03
            1678             352     213.414E-03     223.017E-03
            1608             352     213.414E-03     223.017E-03
            1679             352     213.414E-03     223.017E-03
            1607             352     213.414E-03     223.017E-03
            1678             353     233.119E-03     242.405E-03
            1606             353     233.119E-03     242.405E-03
            1607             353     233.119E-03     242.405E-03
            1677             353     233.119E-03     242.405E-03
            1676             354     252.835E-03     261.781E-03
            1606             354     252.835E-03     261.781E-03
            1605             354     252.835E-03     261.781E-03
            1677             354     252.835E-03     261.781E-03
            1676             355     273.615E-03     281.787E-03
            1675             355     273.615E-03     281.787E-03
            1605             355     273.615E-03     281.787E-03
            1604             355     273.615E-03     281.787E-03
            1675             356     295.486E-03     303.463E-03
            1603             356     295.486E-03     303.463E-03
            1604             356     295.486E-03     303.463E-03
            1674             356     295.486E-03     303.463E-03
            1674             357     325.500E-03     336.495E-03
            1602             357     325.500E-03     336.495E-03
            1673             357     325.500E-03     336.495E-03
            1603             357     325.500E-03     336.495E-03
            2656             374     56.9052E-03     63.6286E-03
            2655             374     56.9052E-03     63.6286E-03
            1752             374     56.9052E-03     63.6286E-03
            1751             374     56.9052E-03     63.6286E-03
            1751             375     63.6313E-03     84.0529E-03
            1750             375     63.6313E-03     84.0529E-03
            2654             375     63.6313E-03     84.0529E-03
            2655             375     63.6313E-03     84.0529E-03
            1750             376     78.8153E-03     105.876E-03
            1749             376     78.8153E-03     105.876E-03
            2654             376     78.8153E-03     105.876E-03
            2653             376     78.8153E-03     105.876E-03
            2653             377     98.3673E-03     128.226E-03
            1749             377     98.3673E-03     128.226E-03
            1748             377     98.3673E-03     128.226E-03
            2652             377     98.3673E-03     128.226E-03
            2651             378     119.846E-03     150.425E-03
            2652             378     119.846E-03     150.425E-03
            1747             378     119.846E-03     150.425E-03
            1748             378     119.846E-03     150.425E-03
            1747             379     142.741E-03     173.556E-03
            2650             379     142.741E-03     173.556E-03
            2651             379     142.741E-03     173.556E-03
            1746             379     142.741E-03     173.556E-03
            1746             380     166.315E-03     196.996E-03
            2650             380     166.315E-03     196.996E-03
            1745             380     166.315E-03     196.996E-03
            2649             380     166.315E-03     196.996E-03
            1745             381     190.397E-03     220.899E-03
            2648             381     190.397E-03     220.899E-03
            1744             381     190.397E-03     220.899E-03
            2649             381     190.397E-03     220.899E-03
            1744             382     214.922E-03     244.857E-03
            2648             382     214.922E-03     244.857E-03
            1743             382     214.922E-03     244.857E-03
            2647             382     214.922E-03     244.857E-03
            2646             383     239.485E-03     269.211E-03
            2647             383     239.485E-03     269.211E-03
            1743             383     239.485E-03     269.211E-03
            1742             383     239.485E-03     269.211E-03
            1741             384     264.574E-03     293.372E-03
            2645             384     264.574E-03     293.372E-03
            1742             384     264.574E-03     293.372E-03
            2646             384     264.574E-03     293.372E-03
            1740             385     289.318E-03     317.912E-03
            2645             385     289.318E-03     317.912E-03
            1741             385     289.318E-03     317.912E-03
            2644             385     289.318E-03     317.912E-03
            1740             386     315.564E-03     342.765E-03
            2643             386     315.564E-03     342.765E-03
            1739             386     315.564E-03     342.765E-03
            2644             386     315.564E-03     342.765E-03
            1739             387     340.427E-03     366.888E-03
            2643             387     340.427E-03     366.888E-03
            1738             387     340.427E-03     366.888E-03
            2642             387     340.427E-03     366.888E-03
            2642             388     380.977E-03     408.744E-03
            1737             388     380.977E-03     408.744E-03
            2641             388     380.977E-03     408.744E-03
            1738             388     380.977E-03     408.744E-03
            1737             389     425.111E-03     432.043E-03
            1721             389     425.111E-03     432.043E-03
            1705             390     402.641E-03     404.784E-03
            1721             390     402.641E-03     404.784E-03
            1689             391     366.103E-03     370.804E-03
            1705             391     366.103E-03     370.804E-03
            1673             392     343.118E-03     347.052E-03
            1689             392     343.118E-03     347.052E-03
            2704             412     54.1860E-03     55.3603E-03
            2720             412     54.1860E-03     55.3603E-03
            2688             413     44.9630E-03     41.1738E-03
            2704             413     44.9630E-03     41.1738E-03
            2672             414     43.0530E-03     38.9576E-03
            2688             414     43.0530E-03     38.9576E-03
            2672             415     49.4441E-03     48.2166E-03
            2656             415     49.4441E-03     48.2166E-03
            2657             420     373.858E-03     379.567E-03
            2641             420     373.858E-03     379.567E-03
            2657             421     356.167E-03     361.270E-03
            2673             421     356.167E-03     361.270E-03
            2689             422     341.747E-03     354.576E-03
            2673             422     341.747E-03     354.576E-03
            2705             423     295.230E-03     284.535E-03
            2689             423     295.230E-03     284.535E-03
            2369             444     258.738E-03     272.027E-03
            2385             444     258.738E-03     272.027E-03
            2385             445     217.166E-03     204.436E-03
            2401             445     217.166E-03     204.436E-03
            2401             446     205.521E-03     214.550E-03
            2417             446     205.521E-03     214.550E-03
            2433             447     212.984E-03     222.482E-03
            2417             447     212.984E-03     222.482E-03
            2433             448     181.423E-03     179.412E-03
            2449             448     181.423E-03     179.412E-03
            2449             449     144.092E-03     148.303E-03
            2465             449     144.092E-03     148.303E-03
            2481             450     114.145E-03     111.324E-03
            2465             450     114.145E-03     111.324E-03
            2481             451     80.1452E-03     78.5596E-03
            2497             451     80.1452E-03     78.5596E-03
            2513             452     50.0551E-03     56.5817E-03
            2497             452     50.0551E-03     56.5817E-03
            2513             453     24.7994E-03     31.2868E-03
            2529             453     24.7994E-03     31.2868E-03
            2370             507     261.050E-03     270.647E-03
            2705             507     261.050E-03     270.647E-03
            2369             507     261.050E-03     270.647E-03
            2706             507     261.050E-03     270.647E-03
            2707             508     248.202E-03     254.012E-03
            2706             508     248.202E-03     254.012E-03
            2370             508     248.202E-03     254.012E-03
            2371             508     248.202E-03     254.012E-03
            2707             509     233.868E-03     239.379E-03
            2708             509     233.868E-03     239.379E-03
            2372             509     233.868E-03     239.379E-03
            2371             509     233.868E-03     239.379E-03
            2372             510     216.017E-03     222.099E-03
            2708             510     216.017E-03     222.099E-03
            2373             510     216.017E-03     222.099E-03
            2709             510     216.017E-03     222.099E-03
            2374             511     198.752E-03     204.882E-03
            2710             511     198.752E-03     204.882E-03
            2373             511     198.752E-03     204.882E-03
            2709             511     198.752E-03     204.882E-03
            2710             512     181.176E-03     187.275E-03
            2374             512     181.176E-03     187.275E-03
            2375             512     181.176E-03     187.275E-03
            2711             512     181.176E-03     187.275E-03
            2375             513     163.733E-03     169.829E-03
            2376             513     163.733E-03     169.829E-03
            2712             513     163.733E-03     169.829E-03
            2711             513     163.733E-03     169.829E-03
            2712             514     146.354E-03     152.422E-03
            2376             514     146.354E-03     152.422E-03
            2377             514     146.354E-03     152.422E-03
            2713             514     146.354E-03     152.422E-03
            2713             515     129.242E-03     135.290E-03
            2378             515     129.242E-03     135.290E-03
            2714             515     129.242E-03     135.290E-03
            2377             515     129.242E-03     135.290E-03
            2379             516     112.537E-03     118.516E-03
            2714             516     112.537E-03     118.516E-03
            2715             516     112.537E-03     118.516E-03
            2378             516     112.537E-03     118.516E-03
            2380             517     96.4788E-03     102.329E-03
            2715             517     96.4788E-03     102.329E-03
            2716             517     96.4788E-03     102.329E-03
            2379             517     96.4788E-03     102.329E-03
            2717             518     81.5274E-03     87.0687E-03
            2716             518     81.5274E-03     87.0687E-03
            2380             518     81.5274E-03     87.0687E-03
            2381             518     81.5274E-03     87.0687E-03
            2382             519     68.3546E-03     73.4990E-03
            2717             519     68.3546E-03     73.4990E-03
            2718             519     68.3546E-03     73.4990E-03
            2381             519     68.3546E-03     73.4990E-03
            2382             520     58.5208E-03     62.6188E-03
            2718             520     58.5208E-03     62.6188E-03
            2719             520     58.5208E-03     62.6188E-03
            2383             520     58.5208E-03     62.6188E-03
            2719             521     50.0946E-03     51.6291E-03
            2720             521     50.0946E-03     51.6291E-03
            2384             521     50.0946E-03     51.6291E-03
            2383             521     50.0946E-03     51.6291E-03
            2384             522     44.8886E-03     41.9967E-03
            2400             522     44.8886E-03     41.9967E-03
            2416             523     50.8971E-03     51.1809E-03
            2400             523     50.8971E-03     51.1809E-03
            2432             524     43.6067E-03     46.0552E-03
            2416             524     43.6067E-03     46.0552E-03
            2448             525     40.9320E-03     41.8620E-03
            2432             525     40.9320E-03     41.8620E-03
            2464             526     46.9803E-03     41.3864E-03
            2448             526     46.9803E-03     41.3864E-03
            2464             527     50.9417E-03     44.8494E-03
            2480             527     50.9417E-03     44.8494E-03
            2496             528     54.8240E-03     48.7114E-03
            2480             528     54.8240E-03     48.7114E-03
            2496             529     59.1629E-03     55.4257E-03
            2512             529     59.1629E-03     55.4257E-03
            2528             530     58.7194E-03     65.6554E-03
            2512             530     58.7194E-03     65.6554E-03
            2544             531     28.5185E-03     34.2823E-03
            2528             531     28.5185E-03     34.2823E-03
            2929             532     310.274E-06     538.267E-06
            2930             532     310.274E-06     538.267E-06
            2543             532     310.274E-06     538.267E-06
            2544             532     310.274E-06     538.267E-06
            2543             533     676.875E-06     854.411E-06
            2542             533     676.875E-06     854.411E-06
            2928             533     676.875E-06     854.411E-06
            2929             533     676.875E-06     854.411E-06
            2542             534     1.07915E-03     1.23449E-03
            2928             534     1.07915E-03     1.23449E-03
            2541             534     1.07915E-03     1.23449E-03
            2927             534     1.07915E-03     1.23449E-03
            2541             535     1.48324E-03     1.62929E-03
            2927             535     1.48324E-03     1.62929E-03
            2926             535     1.48324E-03     1.62929E-03
            2540             535     1.48324E-03     1.62929E-03
            2926             536     1.88811E-03     2.02927E-03
            2539             536     1.88811E-03     2.02927E-03
            2925             536     1.88811E-03     2.02927E-03
            2540             536     1.88811E-03     2.02927E-03
            2538             537     2.29348E-03     2.43193E-03
            2925             537     2.29348E-03     2.43193E-03
            2924             537     2.29348E-03     2.43193E-03
            2539             537     2.29348E-03     2.43193E-03
            2924             538     2.69947E-03     2.83594E-03
            2538             538     2.69947E-03     2.83594E-03
            2923             538     2.69947E-03     2.83594E-03
            2537             538     2.69947E-03     2.83594E-03
            2536             539     3.10596E-03     3.24106E-03
            2923             539     3.10596E-03     3.24106E-03
            2922             539     3.10596E-03     3.24106E-03
            2537             539     3.10596E-03     3.24106E-03
            2536             540     3.51258E-03     3.64666E-03
            2535             540     3.51258E-03     3.64666E-03
            2922             540     3.51258E-03     3.64666E-03
            2921             540     3.51258E-03     3.64666E-03
            2921             541     3.91962E-03     4.05272E-03
            2920             541     3.91962E-03     4.05272E-03
            2534             541     3.91962E-03     4.05272E-03
            2535             541     3.91962E-03     4.05272E-03
            2534             542     4.32609E-03     4.45873E-03
            2533             542     4.32609E-03     4.45873E-03
            2920             542     4.32609E-03     4.45873E-03
            2919             542     4.32609E-03     4.45873E-03
            2532             543     4.73304E-03     4.86508E-03
            2533             543     4.73304E-03     4.86508E-03
            2919             543     4.73304E-03     4.86508E-03
            2918             543     4.73304E-03     4.86508E-03
            2531             544     5.14116E-03     5.27335E-03
            2532             544     5.14116E-03     5.27335E-03
            2918             544     5.14116E-03     5.27335E-03
            2917             544     5.14116E-03     5.27335E-03
            2530             545     5.55562E-03     5.68916E-03
            2531             545     5.55562E-03     5.68916E-03
            2917             545     5.55562E-03     5.68916E-03
            2916             545     5.55562E-03     5.68916E-03
            2530             546     6.00142E-03     6.14182E-03
            2916             546     6.00142E-03     6.14182E-03
            2915             546     6.00142E-03     6.14182E-03
            2529             546     6.00142E-03     6.14182E-03
            3010             582     167.393E-06     182.911E-06
            2994             582     167.393E-06     182.911E-06
            2978             583     176.519E-06     161.637E-06
            2994             583     176.519E-06     161.637E-06
            2978             584     169.692E-06     147.647E-06
            2962             584     169.692E-06     147.647E-06
            2946             585     164.378E-06     148.161E-06
            2962             585     164.378E-06     148.161E-06
            2930             586     144.997E-06     155.068E-06
            2946             586     144.997E-06     155.068E-06
            2979             596     44.7854E-06     76.6045E-06
            2995             596     44.7854E-06     76.6045E-06
            2979             597     89.7259E-06     84.0537E-06
            2963             597     89.7259E-06     84.0537E-06
            2947             598     164.918E-06     167.155E-06
            2963             598     164.918E-06     167.155E-06
            2947             599     249.046E-06     247.304E-06
            2931             599     249.046E-06     247.304E-06
            2915             600     328.773E-06     345.900E-06
            2931             600     328.773E-06     345.900E-06
            3009             616     164.899E-06     184.806E-06
            3010             616     164.899E-06     184.806E-06
            3008             617     177.739E-06     176.167E-06
            3009             617     177.739E-06     176.167E-06
            3007             618     181.685E-06     174.465E-06
            3008             618     181.685E-06     174.465E-06
            3006             619     185.171E-06     175.151E-06
            3007             619     185.171E-06     175.151E-06
            3006             620     188.535E-06     175.914E-06
            3005             620     188.535E-06     175.914E-06
            3005             621     191.854E-06     177.574E-06
            3004             621     191.854E-06     177.574E-06
            3003             622     195.216E-06     179.044E-06
            3004             622     195.216E-06     179.044E-06
            3002             623     198.759E-06     181.086E-06
            3003             623     198.759E-06     181.086E-06
            3002             624     201.333E-06     182.410E-06
            3001             624     201.333E-06     182.410E-06
            3001             625     203.642E-06     183.081E-06
            3000             625     203.642E-06     183.081E-06
            3000             626     201.941E-06     180.834E-06
            2999             626     201.941E-06     180.834E-06
            2998             627     196.201E-06     172.772E-06
            2999             627     196.201E-06     172.772E-06
            2997             628     177.137E-06     152.558E-06
            2998             628     177.137E-06     152.558E-06
            2996             629     144.263E-06     115.496E-06
            2997             629     144.263E-06     115.496E-06
            2995             630     88.0426E-06     98.3803E-06
            2996             630     88.0426E-06     98.3803E-06
             545            1130     144.224E-06     155.891E-06
             562            1130     144.224E-06     155.891E-06
             561            1130     144.224E-06     155.891E-06
             546            1130     144.224E-06     155.891E-06
             546            1131     144.762E-06     156.179E-06
             562            1131     144.762E-06     156.179E-06
             563            1131     144.762E-06     156.179E-06
             547            1131     144.762E-06     156.179E-06
             547            1132     146.864E-06     157.378E-06
             563            1132     146.864E-06     157.378E-06
             564            1132     146.864E-06     157.378E-06
             548            1132     146.864E-06     157.378E-06
             565            1133     148.214E-06     161.525E-06
             549            1133     148.214E-06     161.525E-06
             564            1133     148.214E-06     161.525E-06
             548            1133     148.214E-06     161.525E-06
             565            1134     150.076E-06     165.925E-06
             566            1134     150.076E-06     165.925E-06
             549            1134     150.076E-06     165.925E-06
             550            1134     150.076E-06     165.925E-06
             550            1135     153.044E-06     170.710E-06
             566            1135     153.044E-06     170.710E-06
             567            1135     153.044E-06     170.710E-06
             551            1135     153.044E-06     170.710E-06
             567            1136     156.756E-06     176.029E-06
             568            1136     156.756E-06     176.029E-06
             552            1136     156.756E-06     176.029E-06
             551            1136     156.756E-06     176.029E-06
             552            1137     161.400E-06     181.816E-06
             569            1137     161.400E-06     181.816E-06
             568            1137     161.400E-06     181.816E-06
             553            1137     161.400E-06     181.816E-06
             554            1138     166.536E-06     187.867E-06
             569            1138     166.536E-06     187.867E-06
             570            1138     166.536E-06     187.867E-06
             553            1138     166.536E-06     187.867E-06
             555            1139     172.222E-06     194.264E-06
             554            1139     172.222E-06     194.264E-06
             570            1139     172.222E-06     194.264E-06
             571            1139     172.222E-06     194.264E-06
             571            1140     177.760E-06     200.412E-06
             556            1140     177.760E-06     200.412E-06
             572            1140     177.760E-06     200.412E-06
             555            1140     177.760E-06     200.412E-06
             556            1141     183.562E-06     207.212E-06
             557            1141     183.562E-06     207.212E-06
             572            1141     183.562E-06     207.212E-06
             573            1141     183.562E-06     207.212E-06
             557            1142     190.615E-06     215.088E-06
             573            1142     190.615E-06     215.088E-06
             558            1142     190.615E-06     215.088E-06
             574            1142     190.615E-06     215.088E-06
             559            1143     213.884E-06     238.427E-06
             558            1143     213.884E-06     238.427E-06
             575            1143     213.884E-06     238.427E-06
             574            1143     213.884E-06     238.427E-06
             576            1144     282.118E-06     302.902E-06
             575            1144     282.118E-06     302.902E-06
             560            1144     282.118E-06     302.902E-06
             559            1144     282.118E-06     302.902E-06
             561            1145     160.210E-06     152.122E-06
             562            1145     160.210E-06     152.122E-06
             577            1145     160.210E-06     152.122E-06
             578            1145     160.210E-06     152.122E-06
             563            1146     154.851E-06     158.085E-06
             578            1146     154.851E-06     158.085E-06
             579            1146     154.851E-06     158.085E-06
             562            1146     154.851E-06     158.085E-06
             564            1147     154.274E-06     161.471E-06
             580            1147     154.274E-06     161.471E-06
             579            1147     154.274E-06     161.471E-06
             563            1147     154.274E-06     161.471E-06
             581            1148     155.422E-06     164.438E-06
             564            1148     155.422E-06     164.438E-06
             580            1148     155.422E-06     164.438E-06
             565            1148     155.422E-06     164.438E-06
             566            1149     157.645E-06     167.980E-06
             565            1149     157.645E-06     167.980E-06
             581            1149     157.645E-06     167.980E-06
             582            1149     157.645E-06     167.980E-06
             567            1150     160.917E-06     172.057E-06
             566            1150     160.917E-06     172.057E-06
             583            1150     160.917E-06     172.057E-06
             582            1150     160.917E-06     172.057E-06
             568            1151     164.966E-06     176.968E-06
             567            1151     164.966E-06     176.968E-06
             583            1151     164.966E-06     176.968E-06
             584            1151     164.966E-06     176.968E-06
             584            1152     169.814E-06     182.449E-06
             568            1152     169.814E-06     182.449E-06
             585            1152     169.814E-06     182.449E-06
             569            1152     169.814E-06     182.449E-06
             570            1153     175.694E-06     188.726E-06
             586            1153     175.694E-06     188.726E-06
             569            1153     175.694E-06     188.726E-06
             585            1153     175.694E-06     188.726E-06
             571            1154     182.080E-06     195.681E-06
             586            1154     182.080E-06     195.681E-06
             587            1154     182.080E-06     195.681E-06
             570            1154     182.080E-06     195.681E-06
             588            1155     189.696E-06     203.315E-06
             571            1155     189.696E-06     203.315E-06
             587            1155     189.696E-06     203.315E-06
             572            1155     189.696E-06     203.315E-06
             572            1156     196.461E-06     211.155E-06
             589            1156     196.461E-06     211.155E-06
             588            1156     196.461E-06     211.155E-06
             573            1156     196.461E-06     211.155E-06
             590            1157     202.304E-06     217.402E-06
             574            1157     202.304E-06     217.402E-06
             573            1157     202.304E-06     217.402E-06
             589            1157     202.304E-06     217.402E-06
             574            1158     214.131E-06     225.941E-06
             591            1158     214.131E-06     225.941E-06
             575            1158     214.131E-06     225.941E-06
             590            1158     214.131E-06     225.941E-06
             591            1159     236.398E-06     240.371E-06
             592            1159     236.398E-06     240.371E-06
             575            1159     236.398E-06     240.371E-06
             576            1159     236.398E-06     240.371E-06
             578            1160     169.223E-06     151.764E-06
             577            1160     169.223E-06     151.764E-06
             593            1160     169.223E-06     151.764E-06
             594            1160     169.223E-06     151.764E-06
             594            1161     165.428E-06     160.297E-06
             578            1161     165.428E-06     160.297E-06
             595            1161     165.428E-06     160.297E-06
             579            1161     165.428E-06     160.297E-06
             596            1162     161.763E-06     165.836E-06
             579            1162     161.763E-06     165.836E-06
             580            1162     161.763E-06     165.836E-06
             595            1162     161.763E-06     165.836E-06
             581            1163     163.022E-06     167.533E-06
             597            1163     163.022E-06     167.533E-06
             596            1163     163.022E-06     167.533E-06
             580            1163     163.022E-06     167.533E-06
             582            1164     165.863E-06     169.974E-06
             597            1164     165.863E-06     169.974E-06
             598            1164     165.863E-06     169.974E-06
             581            1164     165.863E-06     169.974E-06
             583            1165     169.150E-06     173.494E-06
             582            1165     169.150E-06     173.494E-06
             599            1165     169.150E-06     173.494E-06
             598            1165     169.150E-06     173.494E-06
             600            1166     173.296E-06     177.564E-06
             584            1166     173.296E-06     177.564E-06
             599            1166     173.296E-06     177.564E-06
             583            1166     173.296E-06     177.564E-06
             600            1167     178.230E-06     182.584E-06
             585            1167     178.230E-06     182.584E-06
             601            1167     178.230E-06     182.584E-06
             584            1167     178.230E-06     182.584E-06
             585            1168     183.952E-06     188.434E-06
             601            1168     183.952E-06     188.434E-06
             602            1168     183.952E-06     188.434E-06
             586            1168     183.952E-06     188.434E-06
             586            1169     191.037E-06     195.308E-06
             603            1169     191.037E-06     195.308E-06
             602            1169     191.037E-06     195.308E-06
             587            1169     191.037E-06     195.308E-06
             588            1170     198.401E-06     203.149E-06
             603            1170     198.401E-06     203.149E-06
             604            1170     198.401E-06     203.149E-06
             587            1170     198.401E-06     203.149E-06
             589            1171     205.933E-06     210.176E-06
             605            1171     205.933E-06     210.176E-06
             604            1171     205.933E-06     210.176E-06
             588            1171     205.933E-06     210.176E-06
             605            1172     207.574E-06     213.759E-06
             606            1172     207.574E-06     213.759E-06
             590            1172     207.574E-06     213.759E-06
             589            1172     207.574E-06     213.759E-06
             590            1173     187.784E-06     198.252E-06
             606            1173     187.784E-06     198.252E-06
             591            1173     187.784E-06     198.252E-06
             607            1173     187.784E-06     198.252E-06
             592            1174     168.491E-06     175.314E-06
             608            1174     168.491E-06     175.314E-06
             607            1174     168.491E-06     175.314E-06
             591            1174     168.491E-06     175.314E-06
             610            1175     172.436E-06     165.493E-06
             594            1175     172.436E-06     165.493E-06
             609            1175     172.436E-06     165.493E-06
             593            1175     172.436E-06     165.493E-06
             594            1176     168.004E-06     169.141E-06
             611            1176     168.004E-06     169.141E-06
             595            1176     168.004E-06     169.141E-06
             610            1176     168.004E-06     169.141E-06
             596            1177     169.272E-06     169.302E-06
             595            1177     169.272E-06     169.302E-06
             611            1177     169.272E-06     169.302E-06
             612            1177     169.272E-06     169.302E-06
             613            1178     171.672E-06     170.399E-06
             596            1178     171.672E-06     170.399E-06
             612            1178     171.672E-06     170.399E-06
             597            1178     171.672E-06     170.399E-06
             597            1179     174.498E-06     172.363E-06
             613            1179     174.498E-06     172.363E-06
             614            1179     174.498E-06     172.363E-06
             598            1179     174.498E-06     172.363E-06
             615            1180     177.988E-06     174.872E-06
             614            1180     177.988E-06     174.872E-06
             599            1180     177.988E-06     174.872E-06
             598            1180     177.988E-06     174.872E-06
             616            1181     181.884E-06     178.200E-06
             615            1181     181.884E-06     178.200E-06
             600            1181     181.884E-06     178.200E-06
             599            1181     181.884E-06     178.200E-06
             616            1182     186.344E-06     182.044E-06
             601            1182     186.344E-06     182.044E-06
             617            1182     186.344E-06     182.044E-06
             600            1182     186.344E-06     182.044E-06
             601            1183     191.427E-06     186.629E-06
             602            1183     191.427E-06     186.629E-06
             618            1183     191.427E-06     186.629E-06
             617            1183     191.427E-06     186.629E-06
             602            1184     197.008E-06     191.799E-06
             603            1184     197.008E-06     191.799E-06
             619            1184     197.008E-06     191.799E-06
             618            1184     197.008E-06     191.799E-06
             604            1185     202.797E-06     197.046E-06
             619            1185     202.797E-06     197.046E-06
             620            1185     202.797E-06     197.046E-06
             603            1185     202.797E-06     197.046E-06
             621            1186     206.623E-06     200.622E-06
             605            1186     206.623E-06     200.622E-06
             620            1186     206.623E-06     200.622E-06
             604            1186     206.623E-06     200.622E-06
             606            1187     201.961E-06     196.598E-06
             622            1187     201.961E-06     196.598E-06
             621            1187     201.961E-06     196.598E-06
             605            1187     201.961E-06     196.598E-06
             607            1188     166.913E-06     167.892E-06
             606            1188     166.913E-06     167.892E-06
             622            1188     166.913E-06     167.892E-06
             623            1188     166.913E-06     167.892E-06
             607            1189     114.029E-06     114.576E-06
             623            1189     114.029E-06     114.576E-06
             608            1189     114.029E-06     114.576E-06
             624            1189     114.029E-06     114.576E-06
             625            1190     168.836E-06     180.770E-06
             626            1190     168.836E-06     180.770E-06
             610            1190     168.836E-06     180.770E-06
             609            1190     168.836E-06     180.770E-06
             611            1191     172.747E-06     175.591E-06
             626            1191     172.747E-06     175.591E-06
             627            1191     172.747E-06     175.591E-06
             610            1191     172.747E-06     175.591E-06
             611            1192     177.536E-06     172.870E-06
             627            1192     177.536E-06     172.870E-06
             628            1192     177.536E-06     172.870E-06
             612            1192     177.536E-06     172.870E-06
             628            1193     180.893E-06     173.619E-06
             629            1193     180.893E-06     173.619E-06
             613            1193     180.893E-06     173.619E-06
             612            1193     180.893E-06     173.619E-06
             613            1194     183.920E-06     174.998E-06
             629            1194     183.920E-06     174.998E-06
             630            1194     183.920E-06     174.998E-06
             614            1194     183.920E-06     174.998E-06
             614            1195     187.382E-06     176.766E-06
             615            1195     187.382E-06     176.766E-06
             630            1195     187.382E-06     176.766E-06
             631            1195     187.382E-06     176.766E-06
             632            1196     190.964E-06     179.029E-06
             616            1196     190.964E-06     179.029E-06
             615            1196     190.964E-06     179.029E-06
             631            1196     190.964E-06     179.029E-06
             633            1197     194.708E-06     181.559E-06
             616            1197     194.708E-06     181.559E-06
             617            1197     194.708E-06     181.559E-06
             632            1197     194.708E-06     181.559E-06
             633            1198     198.428E-06     184.120E-06
             618            1198     198.428E-06     184.120E-06
             617            1198     198.428E-06     184.120E-06
             634            1198     198.428E-06     184.120E-06
             618            1199     201.473E-06     186.332E-06
             634            1199     201.473E-06     186.332E-06
             619            1199     201.473E-06     186.332E-06
             635            1199     201.473E-06     186.332E-06
             619            1200     203.216E-06     186.778E-06
             620            1200     203.216E-06     186.778E-06
             636            1200     203.216E-06     186.778E-06
             635            1200     203.216E-06     186.778E-06
             637            1201     200.160E-06     183.163E-06
             621            1201     200.160E-06     183.163E-06
             620            1201     200.160E-06     183.163E-06
             636            1201     200.160E-06     183.163E-06
             638            1202     186.902E-06     168.470E-06
             637            1202     186.902E-06     168.470E-06
             622            1202     186.902E-06     168.470E-06
             621            1202     186.902E-06     168.470E-06
             639            1203     153.937E-06     134.089E-06
             622            1203     153.937E-06     134.089E-06
             638            1203     153.937E-06     134.089E-06
             623            1203     153.937E-06     134.089E-06
             624            1204     88.0132E-06     94.1880E-06
             623            1204     88.0132E-06     94.1880E-06
             639            1204     88.0132E-06     94.1880E-06
             640            1204     88.0132E-06     94.1880E-06
            1090            1511     15.6169E-03     15.0499E-03
            1091            1511     15.6169E-03     15.0499E-03
            1075            1511     15.6169E-03     15.0499E-03
            1074            1511     15.6169E-03     15.0499E-03
            1092            1512     18.2286E-03     14.9375E-03
            1091            1512     18.2286E-03     14.9375E-03
            1075            1512     18.2286E-03     14.9375E-03
            1076            1512     18.2286E-03     14.9375E-03
            1076            1513     20.4324E-03     17.4378E-03
            1092            1513     20.4324E-03     17.4378E-03
            1093            1513     20.4324E-03     17.4378E-03
            1077            1513     20.4324E-03     17.4378E-03
            1078            1514     21.4131E-03     18.6850E-03
            1094            1514     21.4131E-03     18.6850E-03
            1077            1514     21.4131E-03     18.6850E-03
            1093            1514     21.4131E-03     18.6850E-03
            1078            1515     21.3422E-03     18.8267E-03
            1094            1515     21.3422E-03     18.8267E-03
            1095            1515     21.3422E-03     18.8267E-03
            1079            1515     21.3422E-03     18.8267E-03
            1080            1516     20.8544E-03     18.4882E-03
            1096            1516     20.8544E-03     18.4882E-03
            1095            1516     20.8544E-03     18.4882E-03
            1079            1516     20.8544E-03     18.4882E-03
            1096            1517     20.0427E-03     17.8144E-03
            1081            1517     20.0427E-03     17.8144E-03
            1097            1517     20.0427E-03     17.8144E-03
            1080            1517     20.0427E-03     17.8144E-03
            1098            1518     19.1203E-03     17.0184E-03
            1082            1518     19.1203E-03     17.0184E-03
            1081            1518     19.1203E-03     17.0184E-03
            1097            1518     19.1203E-03     17.0184E-03
            1098            1519     18.1436E-03     16.1909E-03
            1099            1519     18.1436E-03     16.1909E-03
            1083            1519     18.1436E-03     16.1909E-03
            1082            1519     18.1436E-03     16.1909E-03
            1084            1520     17.1864E-03     15.3893E-03
            1083            1520     17.1864E-03     15.3893E-03
            1099            1520     17.1864E-03     15.3893E-03
            1100            1520     17.1864E-03     15.3893E-03
            1084            1521     16.2660E-03     14.6647E-03
            1085            1521     16.2660E-03     14.6647E-03
            1101            1521     16.2660E-03     14.6647E-03
            1100            1521     16.2660E-03     14.6647E-03
            1101            1522     15.4325E-03     14.0892E-03
            1086            1522     15.4325E-03     14.0892E-03
            1102            1522     15.4325E-03     14.0892E-03
            1085            1522     15.4325E-03     14.0892E-03
            1086            1523     14.6888E-03     13.6523E-03
            1103            1523     14.6888E-03     13.6523E-03
            1087            1523     14.6888E-03     13.6523E-03
            1102            1523     14.6888E-03     13.6523E-03
            1087            1524     14.0059E-03     13.6159E-03
            1104            1524     14.0059E-03     13.6159E-03
            1103            1524     14.0059E-03     13.6159E-03
            1088            1524     14.0059E-03     13.6159E-03
            1089            1525     12.9572E-03     14.5309E-03
            1105            1525     12.9572E-03     14.5309E-03
            1104            1525     12.9572E-03     14.5309E-03
            1088            1525     12.9572E-03     14.5309E-03
            1091            1526     26.8450E-03     25.8750E-03
            1107            1526     26.8450E-03     25.8750E-03
            1106            1526     26.8450E-03     25.8750E-03
            1090            1526     26.8450E-03     25.8750E-03
            1091            1527     31.2545E-03     26.8532E-03
            1092            1527     31.2545E-03     26.8532E-03
            1108            1527     31.2545E-03     26.8532E-03
            1107            1527     31.2545E-03     26.8532E-03
            1092            1528     36.7573E-03     32.0375E-03
            1108            1528     36.7573E-03     32.0375E-03
            1109            1528     36.7573E-03     32.0375E-03
            1093            1528     36.7573E-03     32.0375E-03
            1110            1529     38.0764E-03     33.6568E-03
            1093            1529     38.0764E-03     33.6568E-03
            1109            1529     38.0764E-03     33.6568E-03
            1094            1529     38.0764E-03     33.6568E-03
            1110            1530     37.7059E-03     33.5056E-03
            1111            1530     37.7059E-03     33.5056E-03
            1095            1530     37.7059E-03     33.5056E-03
            1094            1530     37.7059E-03     33.5056E-03
            1111            1531     36.3354E-03     32.3281E-03
            1112            1531     36.3354E-03     32.3281E-03
            1095            1531     36.3354E-03     32.3281E-03
            1096            1531     36.3354E-03     32.3281E-03
            1096            1532     34.5427E-03     30.7542E-03
            1097            1532     34.5427E-03     30.7542E-03
            1113            1532     34.5427E-03     30.7542E-03
            1112            1532     34.5427E-03     30.7542E-03
            1097            1533     32.6108E-03     29.0046E-03
            1114            1533     32.6108E-03     29.0046E-03
            1098            1533     32.6108E-03     29.0046E-03
            1113            1533     32.6108E-03     29.0046E-03
            1114            1534     30.6400E-03     27.2578E-03
            1098            1534     30.6400E-03     27.2578E-03
            1099            1534     30.6400E-03     27.2578E-03
            1115            1534     30.6400E-03     27.2578E-03
            1116            1535     28.7369E-03     25.5989E-03
            1115            1535     28.7369E-03     25.5989E-03
            1099            1535     28.7369E-03     25.5989E-03
            1100            1535     28.7369E-03     25.5989E-03
            1116            1536     26.9337E-03     24.1036E-03
            1117            1536     26.9337E-03     24.1036E-03
            1100            1536     26.9337E-03     24.1036E-03
            1101            1536     26.9337E-03     24.1036E-03
            1117            1537     25.2719E-03     22.8703E-03
            1101            1537     25.2719E-03     22.8703E-03
            1118            1537     25.2719E-03     22.8703E-03
            1102            1537     25.2719E-03     22.8703E-03
            1119            1538     23.7735E-03     22.0396E-03
            1102            1538     23.7735E-03     22.0396E-03
            1118            1538     23.7735E-03     22.0396E-03
            1103            1538     23.7735E-03     22.0396E-03
            1103            1539     22.2749E-03     21.9994E-03
            1120            1539     22.2749E-03     21.9994E-03
            1104            1539     22.2749E-03     21.9994E-03
            1119            1539     22.2749E-03     21.9994E-03
            1105            1540     21.5342E-03     23.6174E-03
            1121            1540     21.5342E-03     23.6174E-03
            1120            1540     21.5342E-03     23.6174E-03
            1104            1540     21.5342E-03     23.6174E-03
            1123            1541     34.2373E-03     33.6813E-03
            1122            1541     34.2373E-03     33.6813E-03
            1107            1541     34.2373E-03     33.6813E-03
            1106            1541     34.2373E-03     33.6813E-03
            1108            1542     34.7613E-03     33.9957E-03
            1123            1542     34.7613E-03     33.9957E-03
            1107            1542     34.7613E-03     33.9957E-03
            1124            1542     34.7613E-03     33.9957E-03
            1109            1543     39.5028E-03     37.7789E-03
            1124            1543     39.5028E-03     37.7789E-03
            1125            1543     39.5028E-03     37.7789E-03
            1108            1543     39.5028E-03     37.7789E-03
            1125            1544     39.9562E-03     37.8867E-03
            1110            1544     39.9562E-03     37.8867E-03
            1126            1544     39.9562E-03     37.8867E-03
            1109            1544     39.9562E-03     37.8867E-03
            1111            1545     38.5486E-03     36.4052E-03
            1126            1545     38.5486E-03     36.4052E-03
            1127            1545     38.5486E-03     36.4052E-03
            1110            1545     38.5486E-03     36.4052E-03
            1112            1546     36.3034E-03     34.2266E-03
            1128            1546     36.3034E-03     34.2266E-03
            1111            1546     36.3034E-03     34.2266E-03
            1127            1546     36.3034E-03     34.2266E-03
            1129            1547     33.9361E-03     31.9195E-03
            1112            1547     33.9361E-03     31.9195E-03
            1113            1547     33.9361E-03     31.9195E-03
            1128            1547     33.9361E-03     31.9195E-03
            1130            1548     31.5546E-03     29.6206E-03
            1113            1548     31.5546E-03     29.6206E-03
            1129            1548     31.5546E-03     29.6206E-03
            1114            1548     31.5546E-03     29.6206E-03
            1114            1549     29.2849E-03     27.4412E-03
            1130            1549     29.2849E-03     27.4412E-03
            1115            1549     29.2849E-03     27.4412E-03
            1131            1549     29.2849E-03     27.4412E-03
            1115            1550     27.1378E-03     25.4072E-03
            1116            1550     27.1378E-03     25.4072E-03
            1132            1550     27.1378E-03     25.4072E-03
            1131            1550     27.1378E-03     25.4072E-03
            1117            1551     25.1389E-03     23.5799E-03
            1132            1551     25.1389E-03     23.5799E-03
            1133            1551     25.1389E-03     23.5799E-03
            1116            1551     25.1389E-03     23.5799E-03
            1118            1552     23.3542E-03     22.0149E-03
            1117            1552     23.3542E-03     22.0149E-03
            1134            1552     23.3542E-03     22.0149E-03
            1133            1552     23.3542E-03     22.0149E-03
            1118            1553     21.6934E-03     20.9360E-03
            1119            1553     21.6934E-03     20.9360E-03
            1135            1553     21.6934E-03     20.9360E-03
            1134            1553     21.6934E-03     20.9360E-03
            1119            1554     20.5747E-03     20.6736E-03
            1120            1554     20.5747E-03     20.6736E-03
            1135            1554     20.5747E-03     20.6736E-03
            1136            1554     20.5747E-03     20.6736E-03
            1120            1555     21.4078E-03     20.8614E-03
            1136            1555     21.4078E-03     20.8614E-03
            1121            1555     21.4078E-03     20.8614E-03
            1137            1555     21.4078E-03     20.8614E-03
            1123            1556     44.8660E-03     44.7904E-03
            1122            1556     44.8660E-03     44.7904E-03
            1139            1556     44.8660E-03     44.7904E-03
            1138            1556     44.8660E-03     44.7904E-03
            1139            1557     40.3539E-03     41.4832E-03
            1140            1557     40.3539E-03     41.4832E-03
            1123            1557     40.3539E-03     41.4832E-03
            1124            1557     40.3539E-03     41.4832E-03
            1124            1558     41.2808E-03     41.8637E-03
            1125            1558     41.2808E-03     41.8637E-03
            1140            1558     41.2808E-03     41.8637E-03
            1141            1558     41.2808E-03     41.8637E-03
            1141            1559     40.6089E-03     40.6273E-03
            1142            1559     40.6089E-03     40.6273E-03
            1125            1559     40.6089E-03     40.6273E-03
            1126            1559     40.6089E-03     40.6273E-03
            1142            1560     38.2077E-03     38.1512E-03
            1143            1560     38.2077E-03     38.1512E-03
            1126            1560     38.2077E-03     38.1512E-03
            1127            1560     38.2077E-03     38.1512E-03
            1127            1561     35.6148E-03     35.4713E-03
            1143            1561     35.6148E-03     35.4713E-03
            1144            1561     35.6148E-03     35.4713E-03
            1128            1561     35.6148E-03     35.4713E-03
            1144            1562     32.8826E-03     32.7176E-03
            1129            1562     32.8826E-03     32.7176E-03
            1145            1562     32.8826E-03     32.7176E-03
            1128            1562     32.8826E-03     32.7176E-03
            1130            1563     30.2755E-03     30.1036E-03
            1146            1563     30.2755E-03     30.1036E-03
            1145            1563     30.2755E-03     30.1036E-03
            1129            1563     30.2755E-03     30.1036E-03
            1130            1564     27.7936E-03     27.6216E-03
            1147            1564     27.7936E-03     27.6216E-03
            1146            1564     27.7936E-03     27.6216E-03
            1131            1564     27.7936E-03     27.6216E-03
            1147            1565     25.4653E-03     25.3080E-03
            1132            1565     25.4653E-03     25.3080E-03
            1148            1565     25.4653E-03     25.3080E-03
            1131            1565     25.4653E-03     25.3080E-03
            1149            1566     23.3135E-03     23.1888E-03
            1132            1566     23.3135E-03     23.1888E-03
            1133            1566     23.3135E-03     23.1888E-03
            1148            1566     23.3135E-03     23.1888E-03
            1149            1567     21.3978E-03     21.3399E-03
            1134            1567     21.3978E-03     21.3399E-03
            1150            1567     21.3978E-03     21.3399E-03
            1133            1567     21.3978E-03     21.3399E-03
            1135            1568     19.9573E-03     19.9086E-03
            1150            1568     19.9573E-03     19.9086E-03
            1134            1568     19.9573E-03     19.9086E-03
            1151            1568     19.9573E-03     19.9086E-03
            1151            1569     19.5136E-03     18.9019E-03
            1152            1569     19.5136E-03     18.9019E-03
            1136            1569     19.5136E-03     18.9019E-03
            1135            1569     19.5136E-03     18.9019E-03
            1153            1570     20.2448E-03     18.5372E-03
            1152            1570     20.2448E-03     18.5372E-03
            1137            1570     20.2448E-03     18.5372E-03
            1136            1570     20.2448E-03     18.5372E-03
            1139            1571     55.2893E-03     56.5450E-03
            1154            1571     55.2893E-03     56.5450E-03
            1155            1571     55.2893E-03     56.5450E-03
            1138            1571     55.2893E-03     56.5450E-03
            1140            1572     47.2485E-03     48.6268E-03
            1155            1572     47.2485E-03     48.6268E-03
            1156            1572     47.2485E-03     48.6268E-03
            1139            1572     47.2485E-03     48.6268E-03
            1141            1573     42.8074E-03     44.7948E-03
            1156            1573     42.8074E-03     44.7948E-03
            1140            1573     42.8074E-03     44.7948E-03
            1157            1573     42.8074E-03     44.7948E-03
            1158            1574     39.6388E-03     41.7000E-03
            1142            1574     39.6388E-03     41.7000E-03
            1157            1574     39.6388E-03     41.7000E-03
            1141            1574     39.6388E-03     41.7000E-03
            1142            1575     36.9174E-03     38.8036E-03
            1158            1575     36.9174E-03     38.8036E-03
            1159            1575     36.9174E-03     38.8036E-03
            1143            1575     36.9174E-03     38.8036E-03
            1143            1576     34.0755E-03     35.8525E-03
            1144            1576     34.0755E-03     35.8525E-03
            1160            1576     34.0755E-03     35.8525E-03
            1159            1576     34.0755E-03     35.8525E-03
            1160            1577     31.3227E-03     33.0337E-03
            1161            1577     31.3227E-03     33.0337E-03
            1145            1577     31.3227E-03     33.0337E-03
            1144            1577     31.3227E-03     33.0337E-03
            1162            1578     28.6591E-03     30.3094E-03
            1161            1578     28.6591E-03     30.3094E-03
            1145            1578     28.6591E-03     30.3094E-03
            1146            1578     28.6591E-03     30.3094E-03
            1163            1579     26.1064E-03     27.7041E-03
            1162            1579     26.1064E-03     27.7041E-03
            1147            1579     26.1064E-03     27.7041E-03
            1146            1579     26.1064E-03     27.7041E-03
            1147            1580     23.6897E-03     25.2273E-03
            1148            1580     23.6897E-03     25.2273E-03
            1163            1580     23.6897E-03     25.2273E-03
            1164            1580     23.6897E-03     25.2273E-03
            1148            1581     21.4526E-03     22.9020E-03
            1165            1581     21.4526E-03     22.9020E-03
            1164            1581     21.4526E-03     22.9020E-03
            1149            1581     21.4526E-03     22.9020E-03
            1165            1582     19.4668E-03     20.8197E-03
            1149            1582     19.4668E-03     20.8197E-03
            1150            1582     19.4668E-03     20.8197E-03
            1166            1582     19.4668E-03     20.8197E-03
            1167            1583     18.1497E-03     19.0319E-03
            1151            1583     18.1497E-03     19.0319E-03
            1166            1583     18.1497E-03     19.0319E-03
            1150            1583     18.1497E-03     19.0319E-03
            1151            1584     17.9362E-03     17.5867E-03
            1152            1584     17.9362E-03     17.5867E-03
            1168            1584     17.9362E-03     17.5867E-03
            1167            1584     17.9362E-03     17.5867E-03
            1168            1585     18.6845E-03     17.2155E-03
            1153            1585     18.6845E-03     17.2155E-03
            1152            1585     18.6845E-03     17.2155E-03
            1169            1585     18.6845E-03     17.2155E-03
            1154            1586     66.4148E-03     66.7539E-03
            1170            1586     66.4148E-03     66.7539E-03
            1171            1586     66.4148E-03     66.7539E-03
            1155            1586     66.4148E-03     66.7539E-03
            1156            1587     51.6523E-03     54.1847E-03
            1155            1587     51.6523E-03     54.1847E-03
            1171            1587     51.6523E-03     54.1847E-03
            1172            1587     51.6523E-03     54.1847E-03
            1156            1588     42.4900E-03     46.2311E-03
            1172            1588     42.4900E-03     46.2311E-03
            1173            1588     42.4900E-03     46.2311E-03
            1157            1588     42.4900E-03     46.2311E-03
            1157            1589     38.0061E-03     41.9126E-03
            1173            1589     38.0061E-03     41.9126E-03
            1174            1589     38.0061E-03     41.9126E-03
            1158            1589     38.0061E-03     41.9126E-03
            1175            1590     34.8672E-03     38.6412E-03
            1158            1590     34.8672E-03     38.6412E-03
            1174            1590     34.8672E-03     38.6412E-03
            1159            1590     34.8672E-03     38.6412E-03
            1160            1591     32.0377E-03     35.7297E-03
            1175            1591     32.0377E-03     35.7297E-03
            1159            1591     32.0377E-03     35.7297E-03
            1176            1591     32.0377E-03     35.7297E-03
            1161            1592     29.3829E-03     32.9948E-03
            1160            1592     29.3829E-03     32.9948E-03
            1176            1592     29.3829E-03     32.9948E-03
            1177            1592     29.3829E-03     32.9948E-03
            1162            1593     26.7774E-03     30.3179E-03
            1177            1593     26.7774E-03     30.3179E-03
            1178            1593     26.7774E-03     30.3179E-03
            1161            1593     26.7774E-03     30.3179E-03
            1178            1594     24.2510E-03     27.7088E-03
            1179            1594     24.2510E-03     27.7088E-03
            1163            1594     24.2510E-03     27.7088E-03
            1162            1594     24.2510E-03     27.7088E-03
            1163            1595     21.8191E-03     25.1566E-03
            1180            1595     21.8191E-03     25.1566E-03
            1164            1595     21.8191E-03     25.1566E-03
            1179            1595     21.8191E-03     25.1566E-03
            1181            1596     19.5437E-03     22.7216E-03
            1164            1596     19.5437E-03     22.7216E-03
            1165            1596     19.5437E-03     22.7216E-03
            1180            1596     19.5437E-03     22.7216E-03
            1181            1597     17.5803E-03     20.4487E-03
            1166            1597     17.5803E-03     20.4487E-03
            1182            1597     17.5803E-03     20.4487E-03
            1165            1597     17.5803E-03     20.4487E-03
            1167            1598     16.0145E-03     18.4547E-03
            1183            1598     16.0145E-03     18.4547E-03
            1166            1598     16.0145E-03     18.4547E-03
            1182            1598     16.0145E-03     18.4547E-03
            1167            1599     15.4705E-03     17.0718E-03
            1168            1599     15.4705E-03     17.0718E-03
            1184            1599     15.4705E-03     17.0718E-03
            1183            1599     15.4705E-03     17.0718E-03
            1168            1600     16.7851E-03     16.2966E-03
            1169            1600     16.7851E-03     16.2966E-03
            1185            1600     16.7851E-03     16.2966E-03
            1184            1600     16.7851E-03     16.2966E-03
            1186            1601     72.1483E-03     77.0565E-03
            1170            1601     72.1483E-03     77.0565E-03
            1171            1601     72.1483E-03     77.0565E-03
            1187            1601     72.1483E-03     77.0565E-03
            1172            1602     50.9145E-03     56.7422E-03
            1171            1602     50.9145E-03     56.7422E-03
            1187            1602     50.9145E-03     56.7422E-03
            1188            1602     50.9145E-03     56.7422E-03
            1172            1603     41.2868E-03     47.0203E-03
            1173            1603     41.2868E-03     47.0203E-03
            1189            1603     41.2868E-03     47.0203E-03
            1188            1603     41.2868E-03     47.0203E-03
            1189            1604     36.2800E-03     41.9468E-03
            1174            1604     36.2800E-03     41.9468E-03
            1173            1604     36.2800E-03     41.9468E-03
            1190            1604     36.2800E-03     41.9468E-03
            1174            1605     32.7181E-03     38.3904E-03
            1191            1605     32.7181E-03     38.3904E-03
            1190            1605     32.7181E-03     38.3904E-03
            1175            1605     32.7181E-03     38.3904E-03
            1192            1606     29.9474E-03     35.5748E-03
            1191            1606     29.9474E-03     35.5748E-03
            1175            1606     29.9474E-03     35.5748E-03
            1176            1606     29.9474E-03     35.5748E-03
            1192            1607     27.3189E-03     32.8977E-03
            1193            1607     27.3189E-03     32.8977E-03
            1176            1607     27.3189E-03     32.8977E-03
            1177            1607     27.3189E-03     32.8977E-03
            1177            1608     24.7857E-03     30.3061E-03
            1194            1608     24.7857E-03     30.3061E-03
            1193            1608     24.7857E-03     30.3061E-03
            1178            1608     24.7857E-03     30.3061E-03
            1194            1609     22.2886E-03     27.7053E-03
            1179            1609     22.2886E-03     27.7053E-03
            1195            1609     22.2886E-03     27.7053E-03
            1178            1609     22.2886E-03     27.7053E-03
            1179            1610     19.8707E-03     25.1462E-03
            1196            1610     19.8707E-03     25.1462E-03
            1195            1610     19.8707E-03     25.1462E-03
            1180            1610     19.8707E-03     25.1462E-03
            1181            1611     17.6072E-03     22.6434E-03
            1196            1611     17.6072E-03     22.6434E-03
            1197            1611     17.6072E-03     22.6434E-03
            1180            1611     17.6072E-03     22.6434E-03
            1197            1612     15.6068E-03     20.2730E-03
            1182            1612     15.6068E-03     20.2730E-03
            1198            1612     15.6068E-03     20.2730E-03
            1181            1612     15.6068E-03     20.2730E-03
            1182            1613     13.9856E-03     18.1923E-03
            1183            1613     13.9856E-03     18.1923E-03
            1199            1613     13.9856E-03     18.1923E-03
            1198            1613     13.9856E-03     18.1923E-03
            1183            1614     12.7681E-03     16.6752E-03
            1184            1614     12.7681E-03     16.6752E-03
            1200            1614     12.7681E-03     16.6752E-03
            1199            1614     12.7681E-03     16.6752E-03
            1185            1615     12.9868E-03     16.5846E-03
            1184            1615     12.9868E-03     16.5846E-03
            1201            1615     12.9868E-03     16.5846E-03
            1200            1615     12.9868E-03     16.5846E-03
            1186            1616     77.4981E-03     79.3483E-03
            1202            1616     77.4981E-03     79.3483E-03
            1203            1616     77.4981E-03     79.3483E-03
            1187            1616     77.4981E-03     79.3483E-03
            1203            1617     70.3910E-03     70.7383E-03
            1204            1617     70.3910E-03     70.7383E-03
            1187            1617     70.3910E-03     70.7383E-03
            1188            1617     70.3910E-03     70.7383E-03
            1189            1618     66.0917E-03     66.3669E-03
            1188            1618     66.0917E-03     66.3669E-03
            1204            1618     66.0917E-03     66.3669E-03
            1205            1618     66.0917E-03     66.3669E-03
            1190            1619     61.8389E-03     62.4297E-03
            1206            1619     61.8389E-03     62.4297E-03
            1189            1619     61.8389E-03     62.4297E-03
            1205            1619     61.8389E-03     62.4297E-03
            1191            1620     57.8144E-03     58.5540E-03
            1207            1620     57.8144E-03     58.5540E-03
            1190            1620     57.8144E-03     58.5540E-03
            1206            1620     57.8144E-03     58.5540E-03
            1207            1621     53.6977E-03     54.5531E-03
            1191            1621     53.6977E-03     54.5531E-03
            1208            1621     53.6977E-03     54.5531E-03
            1192            1621     53.6977E-03     54.5531E-03
            1192            1622     49.5367E-03     50.4384E-03
            1208            1622     49.5367E-03     50.4384E-03
            1209            1622     49.5367E-03     50.4384E-03
            1193            1622     49.5367E-03     50.4384E-03
            1209            1623     45.3489E-03     46.2914E-03
            1210            1623     45.3489E-03     46.2914E-03
            1194            1623     45.3489E-03     46.2914E-03
            1193            1623     45.3489E-03     46.2914E-03
            1210            1624     41.1588E-03     42.0965E-03
            1195            1624     41.1588E-03     42.0965E-03
            1211            1624     41.1588E-03     42.0965E-03
            1194            1624     41.1588E-03     42.0965E-03
            1196            1625     37.0352E-03     37.9888E-03
            1212            1625     37.0352E-03     37.9888E-03
            1211            1625     37.0352E-03     37.9888E-03
            1195            1625     37.0352E-03     37.9888E-03
            1212            1626     33.0635E-03     33.9750E-03
            1213            1626     33.0635E-03     33.9750E-03
            1197            1626     33.0635E-03     33.9750E-03
            1196            1626     33.0635E-03     33.9750E-03
            1198            1627     29.3293E-03     30.2428E-03
            1213            1627     29.3293E-03     30.2428E-03
            1197            1627     29.3293E-03     30.2428E-03
            1214            1627     29.3293E-03     30.2428E-03
            1214            1628     26.0323E-03     26.8584E-03
            1215            1628     26.0323E-03     26.8584E-03
            1198            1628     26.0323E-03     26.8584E-03
            1199            1628     26.0323E-03     26.8584E-03
            1215            1629     23.1258E-03     24.3875E-03
            1199            1629     23.1258E-03     24.3875E-03
            1216            1629     23.1258E-03     24.3875E-03
            1200            1629     23.1258E-03     24.3875E-03
            1200            1630     20.2629E-03     24.1803E-03
            1216            1630     20.2629E-03     24.1803E-03
            1217            1630     20.2629E-03     24.1803E-03
            1201            1630     20.2629E-03     24.1803E-03
            1203            1631     88.2137E-03     84.8887E-03
            1218            1631     88.2137E-03     84.8887E-03
            1202            1631     88.2137E-03     84.8887E-03
            1219            1631     88.2137E-03     84.8887E-03
            1219            1632     93.9466E-03     89.9502E-03
            1203            1632     93.9466E-03     89.9502E-03
            1220            1632     93.9466E-03     89.9502E-03
            1204            1632     93.9466E-03     89.9502E-03
            1205            1633     93.5312E-03     89.6235E-03
            1204            1633     93.5312E-03     89.6235E-03
            1220            1633     93.5312E-03     89.6235E-03
            1221            1633     93.5312E-03     89.6235E-03
            1221            1634     89.6869E-03     85.8815E-03
            1222            1634     89.6869E-03     85.8815E-03
            1205            1634     89.6869E-03     85.8815E-03
            1206            1634     89.6869E-03     85.8815E-03
            1223            1635     84.3363E-03     80.6607E-03
            1222            1635     84.3363E-03     80.6607E-03
            1207            1635     84.3363E-03     80.6607E-03
            1206            1635     84.3363E-03     80.6607E-03
            1223            1636     78.3486E-03     74.8484E-03
            1208            1636     78.3486E-03     74.8484E-03
            1224            1636     78.3486E-03     74.8484E-03
            1207            1636     78.3486E-03     74.8484E-03
            1224            1637     72.2586E-03     68.8042E-03
            1209            1637     72.2586E-03     68.8042E-03
            1225            1637     72.2586E-03     68.8042E-03
            1208            1637     72.2586E-03     68.8042E-03
            1209            1638     66.0773E-03     62.7169E-03
            1225            1638     66.0773E-03     62.7169E-03
            1210            1638     66.0773E-03     62.7169E-03
            1226            1638     66.0773E-03     62.7169E-03
            1227            1639     59.9674E-03     56.6663E-03
            1226            1639     59.9674E-03     56.6663E-03
            1210            1639     59.9674E-03     56.6663E-03
            1211            1639     59.9674E-03     56.6663E-03
            1211            1640     53.9229E-03     50.7242E-03
            1212            1640     53.9229E-03     50.7242E-03
            1228            1640     53.9229E-03     50.7242E-03
            1227            1640     53.9229E-03     50.7242E-03
            1229            1641     48.0429E-03     44.9793E-03
            1228            1641     48.0429E-03     44.9793E-03
            1212            1641     48.0429E-03     44.9793E-03
            1213            1641     48.0429E-03     44.9793E-03
            1213            1642     42.4254E-03     39.5719E-03
            1230            1642     42.4254E-03     39.5719E-03
            1214            1642     42.4254E-03     39.5719E-03
            1229            1642     42.4254E-03     39.5719E-03
            1230            1643     37.1154E-03     34.7198E-03
            1214            1643     37.1154E-03     34.7198E-03
            1215            1643     37.1154E-03     34.7198E-03
            1231            1643     37.1154E-03     34.7198E-03
            1231            1644     32.2335E-03     31.1471E-03
            1232            1644     32.2335E-03     31.1471E-03
            1215            1644     32.2335E-03     31.1471E-03
            1216            1644     32.2335E-03     31.1471E-03
            1232            1645     28.3457E-03     30.2063E-03
            1233            1645     28.3457E-03     30.2063E-03
            1216            1645     28.3457E-03     30.2063E-03
            1217            1645     28.3457E-03     30.2063E-03
            1219            1646     100.232E-03     101.434E-03
            1235            1646     100.232E-03     101.434E-03
            1218            1646     100.232E-03     101.434E-03
            1234            1646     100.232E-03     101.434E-03
            1236            1647     99.0291E-03     100.196E-03
            1220            1647     99.0291E-03     100.196E-03
            1219            1647     99.0291E-03     100.196E-03
            1235            1647     99.0291E-03     100.196E-03
            1220            1648     97.0518E-03     96.8584E-03
            1236            1648     97.0518E-03     96.8584E-03
            1237            1648     97.0518E-03     96.8584E-03
            1221            1648     97.0518E-03     96.8584E-03
            1221            1649     91.2800E-03     90.6786E-03
            1222            1649     91.2800E-03     90.6786E-03
            1237            1649     91.2800E-03     90.6786E-03
            1238            1649     91.2800E-03     90.6786E-03
            1223            1650     84.5311E-03     83.8750E-03
            1222            1650     84.5311E-03     83.8750E-03
            1239            1650     84.5311E-03     83.8750E-03
            1238            1650     84.5311E-03     83.8750E-03
            1240            1651     77.7632E-03     77.0328E-03
            1239            1651     77.7632E-03     77.0328E-03
            1223            1651     77.7632E-03     77.0328E-03
            1224            1651     77.7632E-03     77.0328E-03
            1225            1652     70.9822E-03     70.2591E-03
            1240            1652     70.9822E-03     70.2591E-03
            1241            1652     70.9822E-03     70.2591E-03
            1224            1652     70.9822E-03     70.2591E-03
            1241            1653     64.3491E-03     63.6115E-03
            1242            1653     64.3491E-03     63.6115E-03
            1225            1653     64.3491E-03     63.6115E-03
            1226            1653     64.3491E-03     63.6115E-03
            1226            1654     57.8066E-03     57.0838E-03
            1243            1654     57.8066E-03     57.0838E-03
            1242            1654     57.8066E-03     57.0838E-03
            1227            1654     57.8066E-03     57.0838E-03
            1228            1655     51.4181E-03     50.6810E-03
            1244            1655     51.4181E-03     50.6810E-03
            1227            1655     51.4181E-03     50.6810E-03
            1243            1655     51.4181E-03     50.6810E-03
            1245            1656     45.1561E-03     44.4532E-03
            1228            1656     45.1561E-03     44.4532E-03
            1244            1656     45.1561E-03     44.4532E-03
            1229            1656     45.1561E-03     44.4532E-03
            1246            1657     39.1415E-03     38.5012E-03
            1245            1657     39.1415E-03     38.5012E-03
            1229            1657     39.1415E-03     38.5012E-03
            1230            1657     39.1415E-03     38.5012E-03
            1247            1658     33.3914E-03     33.0904E-03
            1230            1658     33.3914E-03     33.0904E-03
            1231            1658     33.3914E-03     33.0904E-03
            1246            1658     33.3914E-03     33.0904E-03
            1231            1659     28.0892E-03     28.9396E-03
            1247            1659     28.0892E-03     28.9396E-03
            1248            1659     28.0892E-03     28.9396E-03
            1232            1659     28.0892E-03     28.9396E-03
            1249            1660     25.2029E-03     25.9037E-03
            1248            1660     25.2029E-03     25.9037E-03
            1233            1660     25.2029E-03     25.9037E-03
            1232            1660     25.2029E-03     25.9037E-03
            1235            1661     112.708E-03     115.618E-03
            1251            1661     112.708E-03     115.618E-03
            1234            1661     112.708E-03     115.618E-03
            1250            1661     112.708E-03     115.618E-03
            1236            1662     105.185E-03     108.143E-03
            1252            1662     105.185E-03     108.143E-03
            1235            1662     105.185E-03     108.143E-03
            1251            1662     105.185E-03     108.143E-03
            1236            1663     98.0284E-03     100.807E-03
            1252            1663     98.0284E-03     100.807E-03
            1253            1663     98.0284E-03     100.807E-03
            1237            1663     98.0284E-03     100.807E-03
            1254            1664     90.5102E-03     93.0238E-03
            1237            1664     90.5102E-03     93.0238E-03
            1253            1664     90.5102E-03     93.0238E-03
            1238            1664     90.5102E-03     93.0238E-03
            1255            1665     83.3342E-03     85.5795E-03
            1254            1665     83.3342E-03     85.5795E-03
            1238            1665     83.3342E-03     85.5795E-03
            1239            1665     83.3342E-03     85.5795E-03
            1256            1666     76.2163E-03     78.3092E-03
            1239            1666     76.2163E-03     78.3092E-03
            1240            1666     76.2163E-03     78.3092E-03
            1255            1666     76.2163E-03     78.3092E-03
            1240            1667     69.2221E-03     71.2599E-03
            1257            1667     69.2221E-03     71.2599E-03
            1256            1667     69.2221E-03     71.2599E-03
            1241            1667     69.2221E-03     71.2599E-03
            1258            1668     62.3390E-03     64.3428E-03
            1241            1668     62.3390E-03     64.3428E-03
            1257            1668     62.3390E-03     64.3428E-03
            1242            1668     62.3390E-03     64.3428E-03
            1258            1669     55.5629E-03     57.5350E-03
            1242            1669     55.5629E-03     57.5350E-03
            1259            1669     55.5629E-03     57.5350E-03
            1243            1669     55.5629E-03     57.5350E-03
            1243            1670     48.8811E-03     50.8268E-03
            1259            1670     48.8811E-03     50.8268E-03
            1260            1670     48.8811E-03     50.8268E-03
            1244            1670     48.8811E-03     50.8268E-03
            1244            1671     42.3443E-03     44.2440E-03
            1261            1671     42.3443E-03     44.2440E-03
            1245            1671     42.3443E-03     44.2440E-03
            1260            1671     42.3443E-03     44.2440E-03
            1245            1672     35.9302E-03     37.8437E-03
            1262            1672     35.9302E-03     37.8437E-03
            1246            1672     35.9302E-03     37.8437E-03
            1261            1672     35.9302E-03     37.8437E-03
            1262            1673     29.8658E-03     31.9424E-03
            1263            1673     29.8658E-03     31.9424E-03
            1247            1673     29.8658E-03     31.9424E-03
            1246            1673     29.8658E-03     31.9424E-03
            1247            1674     24.9189E-03     26.5713E-03
            1263            1674     24.9189E-03     26.5713E-03
            1264            1674     24.9189E-03     26.5713E-03
            1248            1674     24.9189E-03     26.5713E-03
            1264            1675     21.8114E-03     21.7673E-03
            1265            1675     21.8114E-03     21.7673E-03
            1248            1675     21.8114E-03     21.7673E-03
            1249            1675     21.8114E-03     21.7673E-03
            1266            1676     124.623E-03     126.235E-03
            1267            1676     124.623E-03     126.235E-03
            1251            1676     124.623E-03     126.235E-03
            1250            1676     124.623E-03     126.235E-03
            1268            1677     108.742E-03     112.923E-03
            1267            1677     108.742E-03     112.923E-03
            1252            1677     108.742E-03     112.923E-03
            1251            1677     108.742E-03     112.923E-03
            1269            1678     96.1824E-03     101.526E-03
            1252            1678     96.1824E-03     101.526E-03
            1253            1678     96.1824E-03     101.526E-03
            1268            1678     96.1824E-03     101.526E-03
            1269            1679     88.0854E-03     93.2639E-03
            1253            1679     88.0854E-03     93.2639E-03
            1254            1679     88.0854E-03     93.2639E-03
            1270            1679     88.0854E-03     93.2639E-03
            1254            1680     80.8387E-03     85.7741E-03
            1271            1680     80.8387E-03     85.7741E-03
            1255            1680     80.8387E-03     85.7741E-03
            1270            1680     80.8387E-03     85.7741E-03
            1256            1681     73.7911E-03     78.6666E-03
            1255            1681     73.7911E-03     78.6666E-03
            1271            1681     73.7911E-03     78.6666E-03
            1272            1681     73.7911E-03     78.6666E-03
            1256            1682     66.8868E-03     71.7032E-03
            1273            1682     66.8868E-03     71.7032E-03
            1257            1682     66.8868E-03     71.7032E-03
            1272            1682     66.8868E-03     71.7032E-03
            1274            1683     59.9815E-03     64.7936E-03
            1258            1683     59.9815E-03     64.7936E-03
            1273            1683     59.9815E-03     64.7936E-03
            1257            1683     59.9815E-03     64.7936E-03
            1258            1684     53.1325E-03     57.9229E-03
            1274            1684     53.1325E-03     57.9229E-03
            1275            1684     53.1325E-03     57.9229E-03
            1259            1684     53.1325E-03     57.9229E-03
            1260            1685     46.3179E-03     51.0815E-03
            1275            1685     46.3179E-03     51.0815E-03
            1276            1685     46.3179E-03     51.0815E-03
            1259            1685     46.3179E-03     51.0815E-03
            1260            1686     39.5697E-03     44.2913E-03
            1261            1686     39.5697E-03     44.2913E-03
            1276            1686     39.5697E-03     44.2913E-03
            1277            1686     39.5697E-03     44.2913E-03
            1261            1687     32.9527E-03     37.6232E-03
            1262            1687     32.9527E-03     37.6232E-03
            1278            1687     32.9527E-03     37.6232E-03
            1277            1687     32.9527E-03     37.6232E-03
            1279            1688     26.6185E-03     31.1556E-03
            1262            1688     26.6185E-03     31.1556E-03
            1263            1688     26.6185E-03     31.1556E-03
            1278            1688     26.6185E-03     31.1556E-03
            1263            1689     21.4191E-03     24.9950E-03
            1280            1689     21.4191E-03     24.9950E-03
            1264            1689     21.4191E-03     24.9950E-03
            1279            1689     21.4191E-03     24.9950E-03
            1264            1690     18.2740E-03     19.8630E-03
            1281            1690     18.2740E-03     19.8630E-03
            1265            1690     18.2740E-03     19.8630E-03
            1280            1690     18.2740E-03     19.8630E-03
            1283            1691     129.549E-03     135.083E-03
            1267            1691     129.549E-03     135.083E-03
            1266            1691     129.549E-03     135.083E-03
            1282            1691     129.549E-03     135.083E-03
            1283            1692     105.926E-03     113.012E-03
            1284            1692     105.926E-03     113.012E-03
            1268            1692     105.926E-03     113.012E-03
            1267            1692     105.926E-03     113.012E-03
            1284            1693     93.3010E-03     100.546E-03
            1268            1693     93.3010E-03     100.546E-03
            1285            1693     93.3010E-03     100.546E-03
            1269            1693     93.3010E-03     100.546E-03
            1269            1694     84.9267E-03     92.3297E-03
            1285            1694     84.9267E-03     92.3297E-03
            1286            1694     84.9267E-03     92.3297E-03
            1270            1694     84.9267E-03     92.3297E-03
            1286            1695     77.6483E-03     85.1935E-03
            1271            1695     77.6483E-03     85.1935E-03
            1270            1695     77.6483E-03     85.1935E-03
            1287            1695     77.6483E-03     85.1935E-03
            1272            1696     70.8899E-03     78.4892E-03
            1288            1696     70.8899E-03     78.4892E-03
            1271            1696     70.8899E-03     78.4892E-03
            1287            1696     70.8899E-03     78.4892E-03
            1288            1697     64.1269E-03     71.7798E-03
            1289            1697     64.1269E-03     71.7798E-03
            1272            1697     64.1269E-03     71.7798E-03
            1273            1697     64.1269E-03     71.7798E-03
            1274            1698     57.3865E-03     65.0578E-03
            1289            1698     57.3865E-03     65.0578E-03
            1290            1698     57.3865E-03     65.0578E-03
            1273            1698     57.3865E-03     65.0578E-03
            1290            1699     50.5744E-03     58.2662E-03
            1275            1699     50.5744E-03     58.2662E-03
            1274            1699     50.5744E-03     58.2662E-03
            1291            1699     50.5744E-03     58.2662E-03
            1275            1700     43.7635E-03     51.4587E-03
            1291            1700     43.7635E-03     51.4587E-03
            1292            1700     43.7635E-03     51.4587E-03
            1276            1700     43.7635E-03     51.4587E-03
            1277            1701     36.9353E-03     44.6209E-03
            1293            1701     36.9353E-03     44.6209E-03
            1292            1701     36.9353E-03     44.6209E-03
            1276            1701     36.9353E-03     44.6209E-03
            1294            1702     30.2112E-03     37.8286E-03
            1293            1702     30.2112E-03     37.8286E-03
            1277            1702     30.2112E-03     37.8286E-03
            1278            1702     30.2112E-03     37.8286E-03
            1278            1703     23.7479E-03     31.0211E-03
            1279            1703     23.7479E-03     31.0211E-03
            1294            1703     23.7479E-03     31.0211E-03
            1295            1703     23.7479E-03     31.0211E-03
            1296            1704     17.7743E-03     24.6376E-03
            1280            1704     17.7743E-03     24.6376E-03
            1295            1704     17.7743E-03     24.6376E-03
            1279            1704     17.7743E-03     24.6376E-03
            1281            1705     14.0941E-03     19.3672E-03
            1296            1705     14.0941E-03     19.3672E-03
            1280            1705     14.0941E-03     19.3672E-03
            1297            1705     14.0941E-03     19.3672E-03
            1283            1706     134.138E-03     136.534E-03
            1282            1706     134.138E-03     136.534E-03
            1298            1706     134.138E-03     136.534E-03
            1299            1706     134.138E-03     136.534E-03
            1283            1707     124.060E-03     124.737E-03
            1284            1707     124.060E-03     124.737E-03
            1300            1707     124.060E-03     124.737E-03
            1299            1707     124.060E-03     124.737E-03
            1301            1708     116.861E-03     118.078E-03
            1284            1708     116.861E-03     118.078E-03
            1285            1708     116.861E-03     118.078E-03
            1300            1708     116.861E-03     118.078E-03
            1302            1709     109.611E-03     111.584E-03
            1286            1709     109.611E-03     111.584E-03
            1285            1709     109.611E-03     111.584E-03
            1301            1709     109.611E-03     111.584E-03
            1286            1710     102.319E-03     104.733E-03
            1287            1710     102.319E-03     104.733E-03
            1303            1710     102.319E-03     104.733E-03
            1302            1710     102.319E-03     104.733E-03
            1303            1711     94.7159E-03     97.4922E-03
            1287            1711     94.7159E-03     97.4922E-03
            1304            1711     94.7159E-03     97.4922E-03
            1288            1711     94.7159E-03     97.4922E-03
            1305            1712     86.9263E-03     89.8358E-03
            1304            1712     86.9263E-03     89.8358E-03
            1289            1712     86.9263E-03     89.8358E-03
            1288            1712     86.9263E-03     89.8358E-03
            1306            1713     78.9328E-03     81.9727E-03
            1305            1713     78.9328E-03     81.9727E-03
            1290            1713     78.9328E-03     81.9727E-03
            1289            1713     78.9328E-03     81.9727E-03
            1290            1714     70.8854E-03     73.9930E-03
            1291            1714     70.8854E-03     73.9930E-03
            1307            1714     70.8854E-03     73.9930E-03
            1306            1714     70.8854E-03     73.9930E-03
            1291            1715     62.7934E-03     65.9886E-03
            1308            1715     62.7934E-03     65.9886E-03
            1307            1715     62.7934E-03     65.9886E-03
            1292            1715     62.7934E-03     65.9886E-03
            1309            1716     54.8145E-03     58.0613E-03
            1293            1716     54.8145E-03     58.0613E-03
            1292            1716     54.8145E-03     58.0613E-03
            1308            1716     54.8145E-03     58.0613E-03
            1309            1717     47.0297E-03     50.3074E-03
            1310            1717     47.0297E-03     50.3074E-03
            1294            1717     47.0297E-03     50.3074E-03
            1293            1717     47.0297E-03     50.3074E-03
            1295            1718     39.7118E-03     42.9048E-03
            1294            1718     39.7118E-03     42.9048E-03
            1310            1718     39.7118E-03     42.9048E-03
            1311            1718     39.7118E-03     42.9048E-03
            1312            1719     33.0780E-03     36.3625E-03
            1311            1719     33.0780E-03     36.3625E-03
            1295            1719     33.0780E-03     36.3625E-03
            1296            1719     33.0780E-03     36.3625E-03
            1312            1720     27.2509E-03     32.4227E-03
            1296            1720     27.2509E-03     32.4227E-03
            1313            1720     27.2509E-03     32.4227E-03
            1297            1720     27.2509E-03     32.4227E-03
            1314            1721     146.806E-03     143.471E-03
            1315            1721     146.806E-03     143.471E-03
            1299            1721     146.806E-03     143.471E-03
            1298            1721     146.806E-03     143.471E-03
            1316            1722     148.756E-03     145.641E-03
            1315            1722     148.756E-03     145.641E-03
            1300            1722     148.756E-03     145.641E-03
            1299            1722     148.756E-03     145.641E-03
            1317            1723     145.565E-03     142.302E-03
            1300            1723     145.565E-03     142.302E-03
            1301            1723     145.565E-03     142.302E-03
            1316            1723     145.565E-03     142.302E-03
            1317            1724     138.736E-03     135.885E-03
            1318            1724     138.736E-03     135.885E-03
            1301            1724     138.736E-03     135.885E-03
            1302            1724     138.736E-03     135.885E-03
            1318            1725     130.349E-03     127.802E-03
            1302            1725     130.349E-03     127.802E-03
            1303            1725     130.349E-03     127.802E-03
            1319            1725     130.349E-03     127.802E-03
            1320            1726     121.065E-03     118.725E-03
            1304            1726     121.065E-03     118.725E-03
            1303            1726     121.065E-03     118.725E-03
            1319            1726     121.065E-03     118.725E-03
            1304            1727     111.379E-03     109.240E-03
            1320            1727     111.379E-03     109.240E-03
            1321            1727     111.379E-03     109.240E-03
            1305            1727     111.379E-03     109.240E-03
            1306            1728     101.590E-03     99.5261E-03
            1321            1728     101.590E-03     99.5261E-03
            1322            1728     101.590E-03     99.5261E-03
            1305            1728     101.590E-03     99.5261E-03
            1307            1729     91.7522E-03     89.7854E-03
            1323            1729     91.7522E-03     89.7854E-03
            1306            1729     91.7522E-03     89.7854E-03
            1322            1729     91.7522E-03     89.7854E-03
            1308            1730     82.0351E-03     80.1202E-03
            1323            1730     82.0351E-03     80.1202E-03
            1324            1730     82.0351E-03     80.1202E-03
            1307            1730     82.0351E-03     80.1202E-03
            1324            1731     72.4836E-03     70.6562E-03
            1325            1731     72.4836E-03     70.6562E-03
            1308            1731     72.4836E-03     70.6562E-03
            1309            1731     72.4836E-03     70.6562E-03
            1325            1732     63.2999E-03     61.5861E-03
            1326            1732     63.2999E-03     61.5861E-03
            1310            1732     63.2999E-03     61.5861E-03
            1309            1732     63.2999E-03     61.5861E-03
            1327            1733     54.5905E-03     53.2160E-03
            1310            1733     54.5905E-03     53.2160E-03
            1326            1733     54.5905E-03     53.2160E-03
            1311            1733     54.5905E-03     53.2160E-03
            1312            1734     46.5868E-03     46.5677E-03
            1327            1734     46.5868E-03     46.5677E-03
            1328            1734     46.5868E-03     46.5677E-03
            1311            1734     46.5868E-03     46.5677E-03
            1312            1735     39.7821E-03     43.4590E-03
            1313            1735     39.7821E-03     43.4590E-03
            1328            1735     39.7821E-03     43.4590E-03
            1329            1735     39.7821E-03     43.4590E-03
            1315            1736     160.435E-03     162.715E-03
            1331            1736     160.435E-03     162.715E-03
            1314            1736     160.435E-03     162.715E-03
            1330            1736     160.435E-03     162.715E-03
            1331            1737     156.990E-03     158.996E-03
            1316            1737     156.990E-03     158.996E-03
            1332            1737     156.990E-03     158.996E-03
            1315            1737     156.990E-03     158.996E-03
            1332            1738     151.677E-03     152.821E-03
            1316            1738     151.677E-03     152.821E-03
            1317            1738     151.677E-03     152.821E-03
            1333            1738     151.677E-03     152.821E-03
            1317            1739     143.128E-03     143.563E-03
            1334            1739     143.128E-03     143.563E-03
            1333            1739     143.128E-03     143.563E-03
            1318            1739     143.128E-03     143.563E-03
            1319            1740     132.998E-03     133.136E-03
            1335            1740     132.998E-03     133.136E-03
            1318            1740     132.998E-03     133.136E-03
            1334            1740     132.998E-03     133.136E-03
            1320            1741     122.294E-03     122.387E-03
            1335            1741     122.294E-03     122.387E-03
            1336            1741     122.294E-03     122.387E-03
            1319            1741     122.294E-03     122.387E-03
            1321            1742     111.580E-03     111.603E-03
            1336            1742     111.580E-03     111.603E-03
            1337            1742     111.580E-03     111.603E-03
            1320            1742     111.580E-03     111.603E-03
            1322            1743     100.875E-03     100.902E-03
            1338            1743     100.875E-03     100.902E-03
            1321            1743     100.875E-03     100.902E-03
            1337            1743     100.875E-03     100.902E-03
            1323            1744     90.3213E-03     90.3257E-03
            1339            1744     90.3213E-03     90.3257E-03
            1338            1744     90.3213E-03     90.3257E-03
            1322            1744     90.3213E-03     90.3257E-03
            1323            1745     79.9058E-03     79.9027E-03
            1339            1745     79.9058E-03     79.9027E-03
            1324            1745     79.9058E-03     79.9027E-03
            1340            1745     79.9058E-03     79.9027E-03
            1340            1746     69.6876E-03     69.7149E-03
            1324            1746     69.6876E-03     69.7149E-03
            1325            1746     69.6876E-03     69.7149E-03
            1341            1746     69.6876E-03     69.7149E-03
            1325            1747     59.7117E-03     59.9048E-03
            1326            1747     59.7117E-03     59.9048E-03
            1342            1747     59.7117E-03     59.9048E-03
            1341            1747     59.7117E-03     59.9048E-03
            1342            1748     49.9943E-03     50.7969E-03
            1326            1748     49.9943E-03     50.7969E-03
            1343            1748     49.9943E-03     50.7969E-03
            1327            1748     49.9943E-03     50.7969E-03
            1327            1749     40.7705E-03     43.4252E-03
            1344            1749     40.7705E-03     43.4252E-03
            1328            1749     40.7705E-03     43.4252E-03
            1343            1749     40.7705E-03     43.4252E-03
            1345            1750     34.3216E-03     37.3658E-03
            1328            1750     34.3216E-03     37.3658E-03
            1329            1750     34.3216E-03     37.3658E-03
            1344            1750     34.3216E-03     37.3658E-03
            1330            1751     174.350E-03     177.498E-03
            1331            1751     174.350E-03     177.498E-03
            1346            1751     174.350E-03     177.498E-03
            1347            1751     174.350E-03     177.498E-03
            1348            1752     164.853E-03     169.545E-03
            1347            1752     164.853E-03     169.545E-03
            1331            1752     164.853E-03     169.545E-03
            1332            1752     164.853E-03     169.545E-03
            1348            1753     155.813E-03     159.749E-03
            1333            1753     155.813E-03     159.749E-03
            1332            1753     155.813E-03     159.749E-03
            1349            1753     155.813E-03     159.749E-03
            1333            1754     145.053E-03     148.241E-03
            1349            1754     145.053E-03     148.241E-03
            1334            1754     145.053E-03     148.241E-03
            1350            1754     145.053E-03     148.241E-03
            1335            1755     133.515E-03     136.303E-03
            1351            1755     133.515E-03     136.303E-03
            1334            1755     133.515E-03     136.303E-03
            1350            1755     133.515E-03     136.303E-03
            1352            1756     122.168E-03     124.614E-03
            1335            1756     122.168E-03     124.614E-03
            1351            1756     122.168E-03     124.614E-03
            1336            1756     122.168E-03     124.614E-03
            1337            1757     110.830E-03     113.110E-03
            1353            1757     110.830E-03     113.110E-03
            1352            1757     110.830E-03     113.110E-03
            1336            1757     110.830E-03     113.110E-03
            1353            1758     99.6722E-03     101.847E-03
            1337            1758     99.6722E-03     101.847E-03
            1354            1758     99.6722E-03     101.847E-03
            1338            1758     99.6722E-03     101.847E-03
            1354            1759     88.6454E-03     90.7553E-03
            1339            1759     88.6454E-03     90.7553E-03
            1338            1759     88.6454E-03     90.7553E-03
            1355            1759     88.6454E-03     90.7553E-03
            1355            1760     77.7659E-03     79.8415E-03
            1356            1760     77.7659E-03     79.8415E-03
            1339            1760     77.7659E-03     79.8415E-03
            1340            1760     77.7659E-03     79.8415E-03
            1340            1761     67.0289E-03     69.1308E-03
            1356            1761     67.0289E-03     69.1308E-03
            1357            1761     67.0289E-03     69.1308E-03
            1341            1761     67.0289E-03     69.1308E-03
            1342            1762     56.4671E-03     58.7243E-03
            1358            1762     56.4671E-03     58.7243E-03
            1341            1762     56.4671E-03     58.7243E-03
            1357            1762     56.4671E-03     58.7243E-03
            1358            1763     46.0819E-03     49.0173E-03
            1359            1763     46.0819E-03     49.0173E-03
            1343            1763     46.0819E-03     49.0173E-03
            1342            1763     46.0819E-03     49.0173E-03
            1360            1764     36.5676E-03     39.9118E-03
            1359            1764     36.5676E-03     39.9118E-03
            1343            1764     36.5676E-03     39.9118E-03
            1344            1764     36.5676E-03     39.9118E-03
            1361            1765     29.3207E-03     31.1973E-03
            1345            1765     29.3207E-03     31.1973E-03
            1360            1765     29.3207E-03     31.1973E-03
            1344            1765     29.3207E-03     31.1973E-03
            1346            1766     185.967E-03     190.526E-03
            1347            1766     185.967E-03     190.526E-03
            1362            1766     185.967E-03     190.526E-03
            1363            1766     185.967E-03     190.526E-03
            1348            1767     172.016E-03     176.940E-03
            1363            1767     172.016E-03     176.940E-03
            1364            1767     172.016E-03     176.940E-03
            1347            1767     172.016E-03     176.940E-03
            1348            1768     157.425E-03     162.873E-03
            1349            1768     157.425E-03     162.873E-03
            1364            1768     157.425E-03     162.873E-03
            1365            1768     157.425E-03     162.873E-03
            1349            1769     143.987E-03     149.428E-03
            1365            1769     143.987E-03     149.428E-03
            1350            1769     143.987E-03     149.428E-03
            1366            1769     143.987E-03     149.428E-03
            1351            1770     132.058E-03     137.038E-03
            1367            1770     132.058E-03     137.038E-03
            1366            1770     132.058E-03     137.038E-03
            1350            1770     132.058E-03     137.038E-03
            1352            1771     120.402E-03     125.048E-03
            1367            1771     120.402E-03     125.048E-03
            1368            1771     120.402E-03     125.048E-03
            1351            1771     120.402E-03     125.048E-03
            1352            1772     109.002E-03     113.472E-03
            1369            1772     109.002E-03     113.472E-03
            1353            1772     109.002E-03     113.472E-03
            1368            1772     109.002E-03     113.472E-03
            1353            1773     97.7309E-03     102.081E-03
            1354            1773     97.7309E-03     102.081E-03
            1369            1773     97.7309E-03     102.081E-03
            1370            1773     97.7309E-03     102.081E-03
            1370            1774     86.5500E-03     90.8433E-03
            1354            1774     86.5500E-03     90.8433E-03
            1371            1774     86.5500E-03     90.8433E-03
            1355            1774     86.5500E-03     90.8433E-03
            1355            1775     75.4612E-03     79.7202E-03
            1356            1775     75.4612E-03     79.7202E-03
            1371            1775     75.4612E-03     79.7202E-03
            1372            1775     75.4612E-03     79.7202E-03
            1356            1776     64.4606E-03     68.7212E-03
            1357            1776     64.4606E-03     68.7212E-03
            1372            1776     64.4606E-03     68.7212E-03
            1373            1776     64.4606E-03     68.7212E-03
            1357            1777     53.5407E-03     57.9318E-03
            1358            1777     53.5407E-03     57.9318E-03
            1373            1777     53.5407E-03     57.9318E-03
            1374            1777     53.5407E-03     57.9318E-03
            1375            1778     42.9773E-03     47.5234E-03
            1358            1778     42.9773E-03     47.5234E-03
            1359            1778     42.9773E-03     47.5234E-03
            1374            1778     42.9773E-03     47.5234E-03
            1375            1779     33.0957E-03     37.2918E-03
            1360            1779     33.0957E-03     37.2918E-03
            1359            1779     33.0957E-03     37.2918E-03
            1376            1779     33.0957E-03     37.2918E-03
            1376            1780     24.6832E-03     27.9874E-03
            1377            1780     24.6832E-03     27.9874E-03
            1360            1780     24.6832E-03     27.9874E-03
            1361            1780     24.6832E-03     27.9874E-03
            1379            1781     197.110E-03     199.648E-03
            1362            1781     197.110E-03     199.648E-03
            1378            1781     197.110E-03     199.648E-03
            1363            1781     197.110E-03     199.648E-03
            1363            1782     174.447E-03     179.879E-03
            1380            1782     174.447E-03     179.879E-03
            1364            1782     174.447E-03     179.879E-03
            1379            1782     174.447E-03     179.879E-03
            1381            1783     154.844E-03     161.806E-03
            1380            1783     154.844E-03     161.806E-03
            1364            1783     154.844E-03     161.806E-03
            1365            1783     154.844E-03     161.806E-03
            1382            1784     140.987E-03     147.952E-03
            1381            1784     140.987E-03     147.952E-03
            1365            1784     140.987E-03     147.952E-03
            1366            1784     140.987E-03     147.952E-03
            1383            1785     128.881E-03     135.627E-03
            1366            1785     128.881E-03     135.627E-03
            1367            1785     128.881E-03     135.627E-03
            1382            1785     128.881E-03     135.627E-03
            1383            1786     117.424E-03     124.082E-03
            1384            1786     117.424E-03     124.082E-03
            1367            1786     117.424E-03     124.082E-03
            1368            1786     117.424E-03     124.082E-03
            1368            1787     106.266E-03     112.827E-03
            1384            1787     106.266E-03     112.827E-03
            1369            1787     106.266E-03     112.827E-03
            1385            1787     106.266E-03     112.827E-03
            1369            1788     95.1497E-03     101.697E-03
            1386            1788     95.1497E-03     101.697E-03
            1385            1788     95.1497E-03     101.697E-03
            1370            1788     95.1497E-03     101.697E-03
            1370            1789     84.0820E-03     90.6100E-03
            1387            1789     84.0820E-03     90.6100E-03
            1371            1789     84.0820E-03     90.6100E-03
            1386            1789     84.0820E-03     90.6100E-03
            1371            1790     73.0147E-03     79.5285E-03
            1387            1790     73.0147E-03     79.5285E-03
            1372            1790     73.0147E-03     79.5285E-03
            1388            1790     73.0147E-03     79.5285E-03
            1373            1791     61.9843E-03     68.4836E-03
            1372            1791     61.9843E-03     68.4836E-03
            1389            1791     61.9843E-03     68.4836E-03
            1388            1791     61.9843E-03     68.4836E-03
            1390            1792     51.0394E-03     57.5231E-03
            1374            1792     51.0394E-03     57.5231E-03
            1389            1792     51.0394E-03     57.5231E-03
            1373            1792     51.0394E-03     57.5231E-03
            1391            1793     40.3544E-03     46.5696E-03
            1375            1793     40.3544E-03     46.5696E-03
            1390            1793     40.3544E-03     46.5696E-03
            1374            1793     40.3544E-03     46.5696E-03
            1375            1794     30.3701E-03     36.2675E-03
            1391            1794     30.3701E-03     36.2675E-03
            1376            1794     30.3701E-03     36.2675E-03
            1392            1794     30.3701E-03     36.2675E-03
            1376            1795     21.3756E-03     26.3009E-03
            1377            1795     21.3756E-03     26.3009E-03
            1393            1795     21.3756E-03     26.3009E-03
            1392            1795     21.3756E-03     26.3009E-03
            1394            1796     199.859E-03     205.683E-03
            1378            1796     199.859E-03     205.683E-03
            1395            1796     199.859E-03     205.683E-03
            1379            1796     199.859E-03     205.683E-03
            1395            1797     168.985E-03     176.574E-03
            1379            1797     168.985E-03     176.574E-03
            1396            1797     168.985E-03     176.574E-03
            1380            1797     168.985E-03     176.574E-03
            1380            1798     150.296E-03     157.981E-03
            1381            1798     150.296E-03     157.981E-03
            1396            1798     150.296E-03     157.981E-03
            1397            1798     150.296E-03     157.981E-03
            1382            1799     136.778E-03     144.767E-03
            1381            1799     136.778E-03     144.767E-03
            1397            1799     136.778E-03     144.767E-03
            1398            1799     136.778E-03     144.767E-03
            1398            1800     124.826E-03     133.150E-03
            1383            1800     124.826E-03     133.150E-03
            1399            1800     124.826E-03     133.150E-03
            1382            1800     124.826E-03     133.150E-03
            1399            1801     113.825E-03     122.347E-03
            1400            1801     113.825E-03     122.347E-03
            1383            1801     113.825E-03     122.347E-03
            1384            1801     113.825E-03     122.347E-03
            1384            1802     102.989E-03     111.667E-03
            1401            1802     102.989E-03     111.667E-03
            1400            1802     102.989E-03     111.667E-03
            1385            1802     102.989E-03     111.667E-03
            1386            1803     92.2452E-03     101.008E-03
            1401            1803     92.2452E-03     101.008E-03
            1402            1803     92.2452E-03     101.008E-03
            1385            1803     92.2452E-03     101.008E-03
            1403            1804     81.4403E-03     90.2565E-03
            1402            1804     81.4403E-03     90.2565E-03
            1386            1804     81.4403E-03     90.2565E-03
            1387            1804     81.4403E-03     90.2565E-03
            1388            1805     70.6047E-03     79.4448E-03
            1387            1805     70.6047E-03     79.4448E-03
            1404            1805     70.6047E-03     79.4448E-03
            1403            1805     70.6047E-03     79.4448E-03
            1404            1806     59.7439E-03     68.5624E-03
            1388            1806     59.7439E-03     68.5624E-03
            1405            1806     59.7439E-03     68.5624E-03
            1389            1806     59.7439E-03     68.5624E-03
            1406            1807     49.0039E-03     57.6364E-03
            1390            1807     49.0039E-03     57.6364E-03
            1405            1807     49.0039E-03     57.6364E-03
            1389            1807     49.0039E-03     57.6364E-03
            1407            1808     38.4125E-03     46.7430E-03
            1406            1808     38.4125E-03     46.7430E-03
            1391            1808     38.4125E-03     46.7430E-03
            1390            1808     38.4125E-03     46.7430E-03
            1407            1809     28.6146E-03     36.1469E-03
            1392            1809     28.6146E-03     36.1469E-03
            1391            1809     28.6146E-03     36.1469E-03
            1408            1809     28.6146E-03     36.1469E-03
            1409            1810     20.1624E-03     26.6378E-03
            1408            1810     20.1624E-03     26.6378E-03
            1392            1810     20.1624E-03     26.6378E-03
            1393            1810     20.1624E-03     26.6378E-03
            1411            1811     201.993E-03     205.260E-03
            1394            1811     201.993E-03     205.260E-03
            1410            1811     201.993E-03     205.260E-03
            1395            1811     201.993E-03     205.260E-03
            1411            1812     186.184E-03     186.817E-03
            1412            1812     186.184E-03     186.817E-03
            1396            1812     186.184E-03     186.817E-03
            1395            1812     186.184E-03     186.817E-03
            1396            1813     174.281E-03     175.572E-03
            1397            1813     174.281E-03     175.572E-03
            1412            1813     174.281E-03     175.572E-03
            1413            1813     174.281E-03     175.572E-03
            1398            1814     162.522E-03     164.852E-03
            1413            1814     162.522E-03     164.852E-03
            1414            1814     162.522E-03     164.852E-03
            1397            1814     162.522E-03     164.852E-03
            1414            1815     151.036E-03     154.030E-03
            1415            1815     151.036E-03     154.030E-03
            1399            1815     151.036E-03     154.030E-03
            1398            1815     151.036E-03     154.030E-03
            1399            1816     139.309E-03     142.891E-03
            1415            1816     139.309E-03     142.891E-03
            1416            1816     139.309E-03     142.891E-03
            1400            1816     139.309E-03     142.891E-03
            1416            1817     127.517E-03     131.334E-03
            1417            1817     127.517E-03     131.334E-03
            1401            1817     127.517E-03     131.334E-03
            1400            1817     127.517E-03     131.334E-03
            1401            1818     115.517E-03     119.542E-03
            1417            1818     115.517E-03     119.542E-03
            1418            1818     115.517E-03     119.542E-03
            1402            1818     115.517E-03     119.542E-03
            1403            1819     103.464E-03     107.580E-03
            1418            1819     103.464E-03     107.580E-03
            1419            1819     103.464E-03     107.580E-03
            1402            1819     103.464E-03     107.580E-03
            1420            1820     91.3636E-03     95.5552E-03
            1403            1820     91.3636E-03     95.5552E-03
            1419            1820     91.3636E-03     95.5552E-03
            1404            1820     91.3636E-03     95.5552E-03
            1405            1821     79.3722E-03     83.5691E-03
            1404            1821     79.3722E-03     83.5691E-03
            1420            1821     79.3722E-03     83.5691E-03
            1421            1821     79.3722E-03     83.5691E-03
            1422            1822     67.6511E-03     71.7620E-03
            1406            1822     67.6511E-03     71.7620E-03
            1405            1822     67.6511E-03     71.7620E-03
            1421            1822     67.6511E-03     71.7620E-03
            1406            1823     56.5250E-03     60.3164E-03
            1422            1823     56.5250E-03     60.3164E-03
            1407            1823     56.5250E-03     60.3164E-03
            1423            1823     56.5250E-03     60.3164E-03
            1424            1824     46.3974E-03     49.9028E-03
            1408            1824     46.3974E-03     49.9028E-03
            1423            1824     46.3974E-03     49.9028E-03
            1407            1824     46.3974E-03     49.9028E-03
            1408            1825     37.6603E-03     42.3648E-03
            1409            1825     37.6603E-03     42.3648E-03
            1425            1825     37.6603E-03     42.3648E-03
            1424            1825     37.6603E-03     42.3648E-03
            1410            1826     216.261E-03     213.299E-03
            1411            1826     216.261E-03     213.299E-03
            1427            1826     216.261E-03     213.299E-03
            1426            1826     216.261E-03     213.299E-03
            1412            1827     213.149E-03     210.870E-03
            1427            1827     213.149E-03     210.870E-03
            1428            1827     213.149E-03     210.870E-03
            1411            1827     213.149E-03     210.870E-03
            1412            1828     205.441E-03     203.028E-03
            1428            1828     205.441E-03     203.028E-03
            1429            1828     205.441E-03     203.028E-03
            1413            1828     205.441E-03     203.028E-03
            1429            1829     194.358E-03     192.491E-03
            1414            1829     194.358E-03     192.491E-03
            1430            1829     194.358E-03     192.491E-03
            1413            1829     194.358E-03     192.491E-03
            1415            1830     181.731E-03     180.279E-03
            1431            1830     181.731E-03     180.279E-03
            1430            1830     181.731E-03     180.279E-03
            1414            1830     181.731E-03     180.279E-03
            1415            1831     168.228E-03     167.048E-03
            1432            1831     168.228E-03     167.048E-03
            1431            1831     168.228E-03     167.048E-03
            1416            1831     168.228E-03     167.048E-03
            1417            1832     154.293E-03     153.365E-03
            1416            1832     154.293E-03     153.365E-03
            1432            1832     154.293E-03     153.365E-03
            1433            1832     154.293E-03     153.365E-03
            1433            1833     140.257E-03     139.411E-03
            1434            1833     140.257E-03     139.411E-03
            1417            1833     140.257E-03     139.411E-03
            1418            1833     140.257E-03     139.411E-03
            1434            1834     126.149E-03     125.398E-03
            1435            1834     126.149E-03     125.398E-03
            1419            1834     126.149E-03     125.398E-03
            1418            1834     126.149E-03     125.398E-03
            1419            1835     112.171E-03     111.444E-03
            1435            1835     112.171E-03     111.444E-03
            1436            1835     112.171E-03     111.444E-03
            1420            1835     112.171E-03     111.444E-03
            1436            1836     98.3745E-03     97.6894E-03
            1437            1836     98.3745E-03     97.6894E-03
            1421            1836     98.3745E-03     97.6894E-03
            1420            1836     98.3745E-03     97.6894E-03
            1437            1837     85.0323E-03     84.3580E-03
            1421            1837     85.0323E-03     84.3580E-03
            1422            1837     85.0323E-03     84.3580E-03
            1438            1837     85.0323E-03     84.3580E-03
            1439            1838     72.2803E-03     71.8089E-03
            1422            1838     72.2803E-03     71.8089E-03
            1438            1838     72.2803E-03     71.8089E-03
            1423            1838     72.2803E-03     71.8089E-03
            1423            1839     60.5651E-03     61.3383E-03
            1439            1839     60.5651E-03     61.3383E-03
            1440            1839     60.5651E-03     61.3383E-03
            1424            1839     60.5651E-03     61.3383E-03
            1440            1840     50.2240E-03     55.2745E-03
            1425            1840     50.2240E-03     55.2745E-03
            1441            1840     50.2240E-03     55.2745E-03
            1424            1840     50.2240E-03     55.2745E-03
            1443            1841     232.078E-03     235.468E-03
            1427            1841     232.078E-03     235.468E-03
            1426            1841     232.078E-03     235.468E-03
            1442            1841     232.078E-03     235.468E-03
            1443            1842     224.115E-03     227.629E-03
            1428            1842     224.115E-03     227.629E-03
            1427            1842     224.115E-03     227.629E-03
            1444            1842     224.115E-03     227.629E-03
            1445            1843     213.605E-03     216.369E-03
            1428            1843     213.605E-03     216.369E-03
            1429            1843     213.605E-03     216.369E-03
            1444            1843     213.605E-03     216.369E-03
            1429            1844     200.353E-03     202.253E-03
            1446            1844     200.353E-03     202.253E-03
            1445            1844     200.353E-03     202.253E-03
            1430            1844     200.353E-03     202.253E-03
            1447            1845     185.593E-03     187.093E-03
            1430            1845     185.593E-03     187.093E-03
            1431            1845     185.593E-03     187.093E-03
            1446            1845     185.593E-03     187.093E-03
            1448            1846     170.322E-03     171.744E-03
            1431            1846     170.322E-03     171.744E-03
            1432            1846     170.322E-03     171.744E-03
            1447            1846     170.322E-03     171.744E-03
            1449            1847     155.100E-03     156.409E-03
            1448            1847     155.100E-03     156.409E-03
            1433            1847     155.100E-03     156.409E-03
            1432            1847     155.100E-03     156.409E-03
            1450            1848     139.892E-03     141.194E-03
            1434            1848     139.892E-03     141.194E-03
            1449            1848     139.892E-03     141.194E-03
            1433            1848     139.892E-03     141.194E-03
            1434            1849     124.858E-03     126.118E-03
            1451            1849     124.858E-03     126.118E-03
            1435            1849     124.858E-03     126.118E-03
            1450            1849     124.858E-03     126.118E-03
            1436            1850     109.970E-03     111.202E-03
            1451            1850     109.970E-03     111.202E-03
            1435            1850     109.970E-03     111.202E-03
            1452            1850     109.970E-03     111.202E-03
            1452            1851     95.2940E-03     96.5365E-03
            1437            1851     95.2940E-03     96.5365E-03
            1436            1851     95.2940E-03     96.5365E-03
            1453            1851     95.2940E-03     96.5365E-03
            1454            1852     80.8640E-03     82.2880E-03
            1453            1852     80.8640E-03     82.2880E-03
            1438            1852     80.8640E-03     82.2880E-03
            1437            1852     80.8640E-03     82.2880E-03
            1454            1853     66.7234E-03     68.7891E-03
            1439            1853     66.7234E-03     68.7891E-03
            1455            1853     66.7234E-03     68.7891E-03
            1438            1853     66.7234E-03     68.7891E-03
            1455            1854     52.9821E-03     57.3889E-03
            1439            1854     52.9821E-03     57.3889E-03
            1440            1854     52.9821E-03     57.3889E-03
            1456            1854     52.9821E-03     57.3889E-03
            1440            1855     42.1873E-03     47.5424E-03
            1456            1855     42.1873E-03     47.5424E-03
            1441            1855     42.1873E-03     47.5424E-03
            1457            1855     42.1873E-03     47.5424E-03
            1442            1856     246.728E-03     251.527E-03
            1458            1856     246.728E-03     251.527E-03
            1443            1856     246.728E-03     251.527E-03
            1459            1856     246.728E-03     251.527E-03
            1459            1857     233.165E-03     239.804E-03
            1460            1857     233.165E-03     239.804E-03
            1444            1857     233.165E-03     239.804E-03
            1443            1857     233.165E-03     239.804E-03
            1445            1858     219.080E-03     224.896E-03
            1444            1858     219.080E-03     224.896E-03
            1460            1858     219.080E-03     224.896E-03
            1461            1858     219.080E-03     224.896E-03
            1446            1859     203.164E-03     208.104E-03
            1461            1859     203.164E-03     208.104E-03
            1462            1859     203.164E-03     208.104E-03
            1445            1859     203.164E-03     208.104E-03
            1462            1860     186.757E-03     191.125E-03
            1463            1860     186.757E-03     191.125E-03
            1447            1860     186.757E-03     191.125E-03
            1446            1860     186.757E-03     191.125E-03
            1447            1861     170.679E-03     174.568E-03
            1464            1861     170.679E-03     174.568E-03
            1448            1861     170.679E-03     174.568E-03
            1463            1861     170.679E-03     174.568E-03
            1448            1862     154.672E-03     158.325E-03
            1464            1862     154.672E-03     158.325E-03
            1449            1862     154.672E-03     158.325E-03
            1465            1862     154.672E-03     158.325E-03
            1466            1863     138.892E-03     142.394E-03
            1450            1863     138.892E-03     142.394E-03
            1465            1863     138.892E-03     142.394E-03
            1449            1863     138.892E-03     142.394E-03
            1466            1864     123.263E-03     126.677E-03
            1467            1864     123.263E-03     126.677E-03
            1451            1864     123.263E-03     126.677E-03
            1450            1864     123.263E-03     126.677E-03
            1452            1865     107.796E-03     111.163E-03
            1467            1865     107.796E-03     111.163E-03
            1468            1865     107.796E-03     111.163E-03
            1451            1865     107.796E-03     111.163E-03
            1468            1866     92.4679E-03     95.8736E-03
            1469            1866     92.4679E-03     95.8736E-03
            1452            1866     92.4679E-03     95.8736E-03
            1453            1866     92.4679E-03     95.8736E-03
            1453            1867     77.2840E-03     80.9175E-03
            1454            1867     77.2840E-03     80.9175E-03
            1469            1867     77.2840E-03     80.9175E-03
            1470            1867     77.2840E-03     80.9175E-03
            1454            1868     62.1428E-03     66.7788E-03
            1455            1868     62.1428E-03     66.7788E-03
            1471            1868     62.1428E-03     66.7788E-03
            1470            1868     62.1428E-03     66.7788E-03
            1471            1869     47.6754E-03     53.2201E-03
            1472            1869     47.6754E-03     53.2201E-03
            1455            1869     47.6754E-03     53.2201E-03
            1456            1869     47.6754E-03     53.2201E-03
            1473            1870     35.4951E-03     39.6981E-03
            1472            1870     35.4951E-03     39.6981E-03
            1457            1870     35.4951E-03     39.6981E-03
            1456            1870     35.4951E-03     39.6981E-03
            1459            1871     258.512E-03     264.737E-03
            1474            1871     258.512E-03     264.737E-03
            1475            1871     258.512E-03     264.737E-03
            1458            1871     258.512E-03     264.737E-03
            1476            1872     240.412E-03     247.286E-03
            1475            1872     240.412E-03     247.286E-03
            1460            1872     240.412E-03     247.286E-03
            1459            1872     240.412E-03     247.286E-03
            1461            1873     220.715E-03     228.064E-03
            1477            1873     220.715E-03     228.064E-03
            1476            1873     220.715E-03     228.064E-03
            1460            1873     220.715E-03     228.064E-03
            1461            1874     202.086E-03     209.311E-03
            1462            1874     202.086E-03     209.311E-03
            1478            1874     202.086E-03     209.311E-03
            1477            1874     202.086E-03     209.311E-03
            1463            1875     185.278E-03     191.872E-03
            1478            1875     185.278E-03     191.872E-03
            1479            1875     185.278E-03     191.872E-03
            1462            1875     185.278E-03     191.872E-03
            1464            1876     168.883E-03     175.009E-03
            1479            1876     168.883E-03     175.009E-03
            1463            1876     168.883E-03     175.009E-03
            1480            1876     168.883E-03     175.009E-03
            1465            1877     152.808E-03     158.691E-03
            1481            1877     152.808E-03     158.691E-03
            1480            1877     152.808E-03     158.691E-03
            1464            1877     152.808E-03     158.691E-03
            1465            1878     136.909E-03     142.629E-03
            1482            1878     136.909E-03     142.629E-03
            1481            1878     136.909E-03     142.629E-03
            1466            1878     136.909E-03     142.629E-03
            1482            1879     121.117E-03     126.760E-03
            1483            1879     121.117E-03     126.760E-03
            1466            1879     121.117E-03     126.760E-03
            1467            1879     121.117E-03     126.760E-03
            1468            1880     105.428E-03     111.031E-03
            1483            1880     105.428E-03     111.031E-03
            1484            1880     105.428E-03     111.031E-03
            1467            1880     105.428E-03     111.031E-03
            1484            1881     89.8166E-03     95.4427E-03
            1485            1881     89.8166E-03     95.4427E-03
            1468            1881     89.8166E-03     95.4427E-03
            1469            1881     89.8166E-03     95.4427E-03
            1470            1882     74.2407E-03     80.0850E-03
            1485            1882     74.2407E-03     80.0850E-03
            1486            1882     74.2407E-03     80.0850E-03
            1469            1882     74.2407E-03     80.0850E-03
            1486            1883     58.8717E-03     65.1970E-03
            1487            1883     58.8717E-03     65.1970E-03
            1470            1883     58.8717E-03     65.1970E-03
            1471            1883     58.8717E-03     65.1970E-03
            1487            1884     43.8582E-03     50.3965E-03
            1471            1884     43.8582E-03     50.3965E-03
            1488            1884     43.8582E-03     50.3965E-03
            1472            1884     43.8582E-03     50.3965E-03
            1488            1885     29.9539E-03     36.0937E-03
            1473            1885     29.9539E-03     36.0937E-03
            1489            1885     29.9539E-03     36.0937E-03
            1472            1885     29.9539E-03     36.0937E-03
            1474            1886     269.289E-03     272.916E-03
            1475            1886     269.289E-03     272.916E-03
            1490            1886     269.289E-03     272.916E-03
            1491            1886     269.289E-03     272.916E-03
            1475            1887     241.779E-03     248.757E-03
            1492            1887     241.779E-03     248.757E-03
            1476            1887     241.779E-03     248.757E-03
            1491            1887     241.779E-03     248.757E-03
            1493            1888     216.823E-03     225.478E-03
            1477            1888     216.823E-03     225.478E-03
            1476            1888     216.823E-03     225.478E-03
            1492            1888     216.823E-03     225.478E-03
            1494            1889     198.187E-03     206.709E-03
            1478            1889     198.187E-03     206.709E-03
            1493            1889     198.187E-03     206.709E-03
            1477            1889     198.187E-03     206.709E-03
            1479            1890     181.414E-03     189.623E-03
            1494            1890     181.414E-03     189.623E-03
            1478            1890     181.414E-03     189.623E-03
            1495            1890     181.414E-03     189.623E-03
            1495            1891     165.368E-03     173.462E-03
            1479            1891     165.368E-03     173.462E-03
            1496            1891     165.368E-03     173.462E-03
            1480            1891     165.368E-03     173.462E-03
            1496            1892     149.682E-03     157.645E-03
            1481            1892     149.682E-03     157.645E-03
            1480            1892     149.682E-03     157.645E-03
            1497            1892     149.682E-03     157.645E-03
            1482            1893     134.041E-03     141.990E-03
            1497            1893     134.041E-03     141.990E-03
            1481            1893     134.041E-03     141.990E-03
            1498            1893     134.041E-03     141.990E-03
            1482            1894     118.467E-03     126.389E-03
            1499            1894     118.467E-03     126.389E-03
            1483            1894     118.467E-03     126.389E-03
            1498            1894     118.467E-03     126.389E-03
            1484            1895     102.889E-03     110.795E-03
            1500            1895     102.889E-03     110.795E-03
            1483            1895     102.889E-03     110.795E-03
            1499            1895     102.889E-03     110.795E-03
            1500            1896     87.3461E-03     95.2407E-03
            1501            1896     87.3461E-03     95.2407E-03
            1485            1896     87.3461E-03     95.2407E-03
            1484            1896     87.3461E-03     95.2407E-03
            1486            1897     71.8574E-03     79.7868E-03
            1502            1897     71.8574E-03     79.7868E-03
            1485            1897     71.8574E-03     79.7868E-03
            1501            1897     71.8574E-03     79.7868E-03
            1503            1898     56.6016E-03     64.3154E-03
            1487            1898     56.6016E-03     64.3154E-03
            1502            1898     56.6016E-03     64.3154E-03
            1486            1898     56.6016E-03     64.3154E-03
            1488            1899     41.7737E-03     49.6867E-03
            1503            1899     41.7737E-03     49.6867E-03
            1504            1899     41.7737E-03     49.6867E-03
            1487            1899     41.7737E-03     49.6867E-03
            1488            1900     27.0276E-03     35.2756E-03
            1505            1900     27.0276E-03     35.2756E-03
            1489            1900     27.0276E-03     35.2756E-03
            1504            1900     27.0276E-03     35.2756E-03
            1491            1901     270.084E-03     276.416E-03
            1507            1901     270.084E-03     276.416E-03
            1506            1901     270.084E-03     276.416E-03
            1490            1901     270.084E-03     276.416E-03
            1492            1902     233.623E-03     242.166E-03
            1491            1902     233.623E-03     242.166E-03
            1508            1902     233.623E-03     242.166E-03
            1507            1902     233.623E-03     242.166E-03
            1493            1903     210.241E-03     218.906E-03
            1492            1903     210.241E-03     218.906E-03
            1508            1903     210.241E-03     218.906E-03
            1509            1903     210.241E-03     218.906E-03
            1510            1904     192.378E-03     201.494E-03
            1509            1904     192.378E-03     201.494E-03
            1493            1904     192.378E-03     201.494E-03
            1494            1904     192.378E-03     201.494E-03
            1511            1905     176.121E-03     185.699E-03
            1510            1905     176.121E-03     185.699E-03
            1494            1905     176.121E-03     185.699E-03
            1495            1905     176.121E-03     185.699E-03
            1511            1906     160.859E-03     170.715E-03
            1495            1906     160.859E-03     170.715E-03
            1512            1906     160.859E-03     170.715E-03
            1496            1906     160.859E-03     170.715E-03
            1512            1907     145.737E-03     155.814E-03
            1496            1907     145.737E-03     155.814E-03
            1497            1907     145.737E-03     155.814E-03
            1513            1907     145.737E-03     155.814E-03
            1514            1908     130.707E-03     140.893E-03
            1497            1908     130.707E-03     140.893E-03
            1513            1908     130.707E-03     140.893E-03
            1498            1908     130.707E-03     140.893E-03
            1498            1909     115.587E-03     125.844E-03
            1515            1909     115.587E-03     125.844E-03
            1499            1909     115.587E-03     125.844E-03
            1514            1909     115.587E-03     125.844E-03
            1499            1910     100.432E-03     110.710E-03
            1515            1910     100.432E-03     110.710E-03
            1516            1910     100.432E-03     110.710E-03
            1500            1910     100.432E-03     110.710E-03
            1500            1911     85.2434E-03     95.4862E-03
            1516            1911     85.2434E-03     95.4862E-03
            1517            1911     85.2434E-03     95.4862E-03
            1501            1911     85.2434E-03     95.4862E-03
            1517            1912     70.2218E-03     80.2112E-03
            1518            1912     70.2218E-03     80.2112E-03
            1502            1912     70.2218E-03     80.2112E-03
            1501            1912     70.2218E-03     80.2112E-03
            1502            1913     55.3912E-03     64.9717E-03
            1518            1913     55.3912E-03     64.9717E-03
            1503            1913     55.3912E-03     64.9717E-03
            1519            1913     55.3912E-03     64.9717E-03
            1519            1914     41.6123E-03     50.1697E-03
            1520            1914     41.6123E-03     50.1697E-03
            1504            1914     41.6123E-03     50.1697E-03
            1503            1914     41.6123E-03     50.1697E-03
            1521            1915     28.6729E-03     36.7614E-03
            1505            1915     28.6729E-03     36.7614E-03
            1520            1915     28.6729E-03     36.7614E-03
            1504            1915     28.6729E-03     36.7614E-03
            1507            1916     270.224E-03     274.836E-03
            1523            1916     270.224E-03     274.836E-03
            1506            1916     270.224E-03     274.836E-03
            1522            1916     270.224E-03     274.836E-03
            1508            1917     249.470E-03     250.707E-03
            1524            1917     249.470E-03     250.707E-03
            1507            1917     249.470E-03     250.707E-03
            1523            1917     249.470E-03     250.707E-03
            1508            1918     233.439E-03     235.395E-03
            1524            1918     233.439E-03     235.395E-03
            1525            1918     233.439E-03     235.395E-03
            1509            1918     233.439E-03     235.395E-03
            1526            1919     217.193E-03     220.471E-03
            1525            1919     217.193E-03     220.471E-03
            1510            1919     217.193E-03     220.471E-03
            1509            1919     217.193E-03     220.471E-03
            1526            1920     201.463E-03     205.474E-03
            1527            1920     201.463E-03     205.474E-03
            1511            1920     201.463E-03     205.474E-03
            1510            1920     201.463E-03     205.474E-03
            1512            1921     185.394E-03     190.004E-03
            1528            1921     185.394E-03     190.004E-03
            1527            1921     185.394E-03     190.004E-03
            1511            1921     185.394E-03     190.004E-03
            1512            1922     169.326E-03     174.145E-03
            1528            1922     169.326E-03     174.145E-03
            1513            1922     169.326E-03     174.145E-03
            1529            1922     169.326E-03     174.145E-03
            1530            1923     153.040E-03     158.055E-03
            1514            1923     153.040E-03     158.055E-03
            1529            1923     153.040E-03     158.055E-03
            1513            1923     153.040E-03     158.055E-03
            1530            1924     136.680E-03     141.732E-03
            1531            1924     136.680E-03     141.732E-03
            1515            1924     136.680E-03     141.732E-03
            1514            1924     136.680E-03     141.732E-03
            1531            1925     120.235E-03     125.377E-03
            1516            1925     120.235E-03     125.377E-03
            1532            1925     120.235E-03     125.377E-03
            1515            1925     120.235E-03     125.377E-03
            1533            1926     103.903E-03     109.025E-03
            1516            1926     103.903E-03     109.025E-03
            1517            1926     103.903E-03     109.025E-03
            1532            1926     103.903E-03     109.025E-03
            1533            1927     87.8357E-03     92.8546E-03
            1517            1927     87.8357E-03     92.8546E-03
            1534            1927     87.8357E-03     92.8546E-03
            1518            1927     87.8357E-03     92.8546E-03
            1518            1928     72.4840E-03     77.0346E-03
            1519            1928     72.4840E-03     77.0346E-03
            1534            1928     72.4840E-03     77.0346E-03
            1535            1928     72.4840E-03     77.0346E-03
            1535            1929     58.4605E-03     62.3771E-03
            1519            1929     58.4605E-03     62.3771E-03
            1520            1929     58.4605E-03     62.3771E-03
            1536            1929     58.4605E-03     62.3771E-03
            1536            1930     46.4723E-03     50.6998E-03
            1521            1930     46.4723E-03     50.6998E-03
            1520            1930     46.4723E-03     50.6998E-03
            1537            1930     46.4723E-03     50.6998E-03
            1539            1931     286.339E-03     284.561E-03
            1523            1931     286.339E-03     284.561E-03
            1538            1931     286.339E-03     284.561E-03
            1522            1931     286.339E-03     284.561E-03
            1524            1932     278.364E-03     277.090E-03
            1540            1932     278.364E-03     277.090E-03
            1523            1932     278.364E-03     277.090E-03
            1539            1932     278.364E-03     277.090E-03
            1524            1933     265.114E-03     264.196E-03
            1540            1933     265.114E-03     264.196E-03
            1525            1933     265.114E-03     264.196E-03
            1541            1933     265.114E-03     264.196E-03
            1525            1934     249.217E-03     248.533E-03
            1541            1934     249.217E-03     248.533E-03
            1542            1934     249.217E-03     248.533E-03
            1526            1934     249.217E-03     248.533E-03
            1527            1935     231.615E-03     231.274E-03
            1526            1935     231.615E-03     231.274E-03
            1543            1935     231.615E-03     231.274E-03
            1542            1935     231.615E-03     231.274E-03
            1528            1936     213.431E-03     213.373E-03
            1543            1936     213.431E-03     213.373E-03
            1544            1936     213.431E-03     213.373E-03
            1527            1936     213.431E-03     213.373E-03
            1545            1937     195.082E-03     195.071E-03
            1528            1937     195.082E-03     195.071E-03
            1544            1937     195.082E-03     195.071E-03
            1529            1937     195.082E-03     195.071E-03
            1529            1938     176.568E-03     176.639E-03
            1545            1938     176.568E-03     176.639E-03
            1546            1938     176.568E-03     176.639E-03
            1530            1938     176.568E-03     176.639E-03
            1531            1939     158.081E-03     158.141E-03
            1530            1939     158.081E-03     158.141E-03
            1547            1939     158.081E-03     158.141E-03
            1546            1939     158.081E-03     158.141E-03
            1532            1940     139.632E-03     139.720E-03
            1547            1940     139.632E-03     139.720E-03
            1548            1940     139.632E-03     139.720E-03
            1531            1940     139.632E-03     139.720E-03
            1548            1941     121.378E-03     121.458E-03
            1532            1941     121.378E-03     121.458E-03
            1549            1941     121.378E-03     121.458E-03
            1533            1941     121.378E-03     121.458E-03
            1533            1942     103.537E-03     103.646E-03
            1549            1942     103.537E-03     103.646E-03
            1550            1942     103.537E-03     103.646E-03
            1534            1942     103.537E-03     103.646E-03
            1535            1943     86.2825E-03     86.4720E-03
            1551            1943     86.2825E-03     86.4720E-03
            1550            1943     86.2825E-03     86.4720E-03
            1534            1943     86.2825E-03     86.4720E-03
            1551            1944     70.2575E-03     71.3554E-03
            1552            1944     70.2575E-03     71.3554E-03
            1535            1944     70.2575E-03     71.3554E-03
            1536            1944     70.2575E-03     71.3554E-03
            1537            1945     55.5091E-03     61.2811E-03
            1553            1945     55.5091E-03     61.2811E-03
            1552            1945     55.5091E-03     61.2811E-03
            1536            1945     55.5091E-03     61.2811E-03
            1555            1946     304.741E-03     309.105E-03
            1538            1946     304.741E-03     309.105E-03
            1554            1946     304.741E-03     309.105E-03
            1539            1946     304.741E-03     309.105E-03
            1555            1947     290.487E-03     296.535E-03
            1540            1947     290.487E-03     296.535E-03
            1556            1947     290.487E-03     296.535E-03
            1539            1947     290.487E-03     296.535E-03
            1541            1948     273.784E-03     278.277E-03
            1557            1948     273.784E-03     278.277E-03
            1540            1948     273.784E-03     278.277E-03
            1556            1948     273.784E-03     278.277E-03
            1541            1949     254.412E-03     257.999E-03
            1557            1949     254.412E-03     257.999E-03
            1558            1949     254.412E-03     257.999E-03
            1542            1949     254.412E-03     257.999E-03
            1542            1950     234.356E-03     237.614E-03
            1543            1950     234.356E-03     237.614E-03
            1559            1950     234.356E-03     237.614E-03
            1558            1950     234.356E-03     237.614E-03
            1543            1951     214.576E-03     217.587E-03
            1559            1951     214.576E-03     217.587E-03
            1560            1951     214.576E-03     217.587E-03
            1544            1951     214.576E-03     217.587E-03
            1545            1952     194.824E-03     197.783E-03
            1561            1952     194.824E-03     197.783E-03
            1544            1952     194.824E-03     197.783E-03
            1560            1952     194.824E-03     197.783E-03
            1561            1953     175.287E-03     178.183E-03
            1545            1953     175.287E-03     178.183E-03
            1562            1953     175.287E-03     178.183E-03
            1546            1953     175.287E-03     178.183E-03
            1547            1954     155.857E-03     158.731E-03
            1563            1954     155.857E-03     158.731E-03
            1546            1954     155.857E-03     158.731E-03
            1562            1954     155.857E-03     158.731E-03
            1547            1955     136.618E-03     139.409E-03
            1564            1955     136.618E-03     139.409E-03
            1548            1955     136.618E-03     139.409E-03
            1563            1955     136.618E-03     139.409E-03
            1565            1956     117.513E-03     120.260E-03
            1548            1956     117.513E-03     120.260E-03
            1549            1956     117.513E-03     120.260E-03
            1564            1956     117.513E-03     120.260E-03
            1565            1957     98.6751E-03     101.455E-03
            1549            1957     98.6751E-03     101.455E-03
            1566            1957     98.6751E-03     101.455E-03
            1550            1957     98.6751E-03     101.455E-03
            1566            1958     80.0149E-03     83.3658E-03
            1551            1958     80.0149E-03     83.3658E-03
            1550            1958     80.0149E-03     83.3658E-03
            1567            1958     80.0149E-03     83.3658E-03
            1552            1959     61.5010E-03     67.1749E-03
            1568            1959     61.5010E-03     67.1749E-03
            1551            1959     61.5010E-03     67.1749E-03
            1567            1959     61.5010E-03     67.1749E-03
            1569            1960     45.3250E-03     52.6785E-03
            1552            1960     45.3250E-03     52.6785E-03
            1553            1960     45.3250E-03     52.6785E-03
            1568            1960     45.3250E-03     52.6785E-03
            1554            1961     318.414E-03     327.164E-03
            1555            1961     318.414E-03     327.164E-03
            1571            1961     318.414E-03     327.164E-03
            1570            1961     318.414E-03     327.164E-03
            1556            1962     299.275E-03     307.534E-03
            1572            1962     299.275E-03     307.534E-03
            1555            1962     299.275E-03     307.534E-03
            1571            1962     299.275E-03     307.534E-03
            1557            1963     277.022E-03     284.936E-03
            1572            1963     277.022E-03     284.936E-03
            1573            1963     277.022E-03     284.936E-03
            1556            1963     277.022E-03     284.936E-03
            1574            1964     254.739E-03     262.067E-03
            1557            1964     254.739E-03     262.067E-03
            1573            1964     254.739E-03     262.067E-03
            1558            1964     254.739E-03     262.067E-03
            1574            1965     234.068E-03     240.548E-03
            1558            1965     234.068E-03     240.548E-03
            1559            1965     234.068E-03     240.548E-03
            1575            1965     234.068E-03     240.548E-03
            1575            1966     213.560E-03     219.648E-03
            1559            1966     213.560E-03     219.648E-03
            1560            1966     213.560E-03     219.648E-03
            1576            1966     213.560E-03     219.648E-03
            1561            1967     193.383E-03     199.292E-03
            1577            1967     193.383E-03     199.292E-03
            1576            1967     193.383E-03     199.292E-03
            1560            1967     193.383E-03     199.292E-03
            1561            1968     173.361E-03     179.198E-03
            1562            1968     173.361E-03     179.198E-03
            1577            1968     173.361E-03     179.198E-03
            1578            1968     173.361E-03     179.198E-03
            1562            1969     153.512E-03     159.285E-03
            1563            1969     153.512E-03     159.285E-03
            1578            1969     153.512E-03     159.285E-03
            1579            1969     153.512E-03     159.285E-03
            1563            1970     133.770E-03     139.486E-03
            1580            1970     133.770E-03     139.486E-03
            1564            1970     133.770E-03     139.486E-03
            1579            1970     133.770E-03     139.486E-03
            1580            1971     114.185E-03     119.846E-03
            1564            1971     114.185E-03     119.846E-03
            1565            1971     114.185E-03     119.846E-03
            1581            1971     114.185E-03     119.846E-03
            1582            1972     94.6242E-03     100.348E-03
            1565            1972     94.6242E-03     100.348E-03
            1566            1972     94.6242E-03     100.348E-03
            1581            1972     94.6242E-03     100.348E-03
            1582            1973     75.1188E-03     81.6688E-03
            1567            1973     75.1188E-03     81.6688E-03
            1566            1973     75.1188E-03     81.6688E-03
            1583            1973     75.1188E-03     81.6688E-03
            1568            1974     55.6536E-03     63.8647E-03
            1567            1974     55.6536E-03     63.8647E-03
            1584            1974     55.6536E-03     63.8647E-03
            1583            1974     55.6536E-03     63.8647E-03
            1584            1975     37.7806E-03     44.8871E-03
            1568            1975     37.7806E-03     44.8871E-03
            1569            1975     37.7806E-03     44.8871E-03
            1585            1975     37.7806E-03     44.8871E-03
            1586            1976     330.286E-03     335.016E-03
            1587            1976     330.286E-03     335.016E-03
            1570            1976     330.286E-03     335.016E-03
            1571            1976     330.286E-03     335.016E-03
            1571            1977     300.564E-03     309.742E-03
            1588            1977     300.564E-03     309.742E-03
            1587            1977     300.564E-03     309.742E-03
            1572            1977     300.564E-03     309.742E-03
            1588            1978     272.903E-03     283.166E-03
            1589            1978     272.903E-03     283.166E-03
            1572            1978     272.903E-03     283.166E-03
            1573            1978     272.903E-03     283.166E-03
            1590            1979     251.077E-03     260.719E-03
            1589            1979     251.077E-03     260.719E-03
            1573            1979     251.077E-03     260.719E-03
            1574            1979     251.077E-03     260.719E-03
            1591            1980     230.472E-03     239.609E-03
            1575            1980     230.472E-03     239.609E-03
            1590            1980     230.472E-03     239.609E-03
            1574            1980     230.472E-03     239.609E-03
            1576            1981     210.370E-03     219.296E-03
            1575            1981     210.370E-03     219.296E-03
            1592            1981     210.370E-03     219.296E-03
            1591            1981     210.370E-03     219.296E-03
            1592            1982     190.456E-03     199.286E-03
            1577            1982     190.456E-03     199.286E-03
            1576            1982     190.456E-03     199.286E-03
            1593            1982     190.456E-03     199.286E-03
            1578            1983     170.595E-03     179.405E-03
            1593            1983     170.595E-03     179.405E-03
            1594            1983     170.595E-03     179.405E-03
            1577            1983     170.595E-03     179.405E-03
            1595            1984     150.791E-03     159.585E-03
            1594            1984     150.791E-03     159.585E-03
            1579            1984     150.791E-03     159.585E-03
            1578            1984     150.791E-03     159.585E-03
            1579            1985     131.027E-03     139.788E-03
            1595            1985     131.027E-03     139.788E-03
            1580            1985     131.027E-03     139.788E-03
            1596            1985     131.027E-03     139.788E-03
            1581            1986     111.294E-03     120.014E-03
            1597            1986     111.294E-03     120.014E-03
            1596            1986     111.294E-03     120.014E-03
            1580            1986     111.294E-03     120.014E-03
            1597            1987     91.6079E-03     100.384E-03
            1582            1987     91.6079E-03     100.384E-03
            1598            1987     91.6079E-03     100.384E-03
            1581            1987     91.6079E-03     100.384E-03
            1582            1988     71.9431E-03     80.9806E-03
            1599            1988     71.9431E-03     80.9806E-03
            1583            1988     71.9431E-03     80.9806E-03
            1598            1988     71.9431E-03     80.9806E-03
            1600            1989     52.8645E-03     61.9883E-03
            1584            1989     52.8645E-03     61.9883E-03
            1599            1989     52.8645E-03     61.9883E-03
            1583            1989     52.8645E-03     61.9883E-03
            1585            1990     33.1823E-03     44.0224E-03
            1601            1990     33.1823E-03     44.0224E-03
            1584            1990     33.1823E-03     44.0224E-03
            1600            1990     33.1823E-03     44.0224E-03
            1602            1991     329.616E-03     337.114E-03
            1603            1991     329.616E-03     337.114E-03
            1586            1991     329.616E-03     337.114E-03
            1587            1991     329.616E-03     337.114E-03
            1588            1992     290.816E-03     301.005E-03
            1604            1992     290.816E-03     301.005E-03
            1603            1992     290.816E-03     301.005E-03
            1587            1992     290.816E-03     301.005E-03
            1588            1993     264.903E-03     275.572E-03
            1604            1993     264.903E-03     275.572E-03
            1605            1993     264.903E-03     275.572E-03
            1589            1993     264.903E-03     275.572E-03
            1605            1994     244.250E-03     255.273E-03
            1590            1994     244.250E-03     255.273E-03
            1589            1994     244.250E-03     255.273E-03
            1606            1994     244.250E-03     255.273E-03
            1606            1995     224.577E-03     236.011E-03
            1590            1995     224.577E-03     236.011E-03
            1591            1995     224.577E-03     236.011E-03
            1607            1995     224.577E-03     236.011E-03
            1592            1996     205.529E-03     217.170E-03
            1608            1996     205.529E-03     217.170E-03
            1591            1996     205.529E-03     217.170E-03
            1607            1996     205.529E-03     217.170E-03
            1593            1997     186.409E-03     198.162E-03
            1609            1997     186.409E-03     198.162E-03
            1592            1997     186.409E-03     198.162E-03
            1608            1997     186.409E-03     198.162E-03
            1594            1998     167.233E-03     179.054E-03
            1593            1998     167.233E-03     179.054E-03
            1609            1998     167.233E-03     179.054E-03
            1610            1998     167.233E-03     179.054E-03
            1595            1999     147.911E-03     159.763E-03
            1610            1999     147.911E-03     159.763E-03
            1611            1999     147.911E-03     159.763E-03
            1594            1999     147.911E-03     159.763E-03
            1612            2000     128.520E-03     140.403E-03
            1595            2000     128.520E-03     140.403E-03
            1596            2000     128.520E-03     140.403E-03
            1611            2000     128.520E-03     140.403E-03
            1596            2001     109.057E-03     120.929E-03
            1613            2001     109.057E-03     120.929E-03
            1612            2001     109.057E-03     120.929E-03
            1597            2001     109.057E-03     120.929E-03
            1597            2002     89.7081E-03     101.518E-03
            1598            2002     89.7081E-03     101.518E-03
            1613            2002     89.7081E-03     101.518E-03
            1614            2002     89.7081E-03     101.518E-03
            1598            2003     70.6302E-03     81.9294E-03
            1615            2003     70.6302E-03     81.9294E-03
            1599            2003     70.6302E-03     81.9294E-03
            1614            2003     70.6302E-03     81.9294E-03
            1600            2004     52.4730E-03     62.9017E-03
            1616            2004     52.4730E-03     62.9017E-03
            1615            2004     52.4730E-03     62.9017E-03
            1599            2004     52.4730E-03     62.9017E-03
            1601            2005     35.4334E-03     45.5337E-03
            1617            2005     35.4334E-03     45.5337E-03
            1600            2005     35.4334E-03     45.5337E-03
            1616            2005     35.4334E-03     45.5337E-03
            1689            2042     338.886E-03     341.761E-03
            1674            2042     338.886E-03     341.761E-03
            1690            2042     338.886E-03     341.761E-03
            1673            2042     338.886E-03     341.761E-03
            1690            2043     327.936E-03     329.224E-03
            1691            2043     327.936E-03     329.224E-03
            1674            2043     327.936E-03     329.224E-03
            1675            2043     327.936E-03     329.224E-03
            1692            2044     312.261E-03     313.368E-03
            1675            2044     312.261E-03     313.368E-03
            1676            2044     312.261E-03     313.368E-03
            1691            2044     312.261E-03     313.368E-03
            1676            2045     293.495E-03     294.227E-03
            1677            2045     293.495E-03     294.227E-03
            1693            2045     293.495E-03     294.227E-03
            1692            2045     293.495E-03     294.227E-03
            1677            2046     273.486E-03     273.833E-03
            1678            2046     273.486E-03     273.833E-03
            1694            2046     273.486E-03     273.833E-03
            1693            2046     273.486E-03     273.833E-03
            1694            2047     253.203E-03     253.204E-03
            1695            2047     253.203E-03     253.204E-03
            1678            2047     253.203E-03     253.204E-03
            1679            2047     253.203E-03     253.204E-03
            1680            2048     232.769E-03     232.208E-03
            1696            2048     232.769E-03     232.208E-03
            1695            2048     232.769E-03     232.208E-03
            1679            2048     232.769E-03     232.208E-03
            1681            2049     212.346E-03     211.464E-03
            1696            2049     212.346E-03     211.464E-03
            1697            2049     212.346E-03     211.464E-03
            1680            2049     212.346E-03     211.464E-03
            1697            2050     192.160E-03     190.885E-03
            1682            2050     192.160E-03     190.885E-03
            1698            2050     192.160E-03     190.885E-03
            1681            2050     192.160E-03     190.885E-03
            1699            2051     172.364E-03     170.927E-03
            1682            2051     172.364E-03     170.927E-03
            1683            2051     172.364E-03     170.927E-03
            1698            2051     172.364E-03     170.927E-03
            1684            2052     153.110E-03     151.589E-03
            1700            2052     153.110E-03     151.589E-03
            1683            2052     153.110E-03     151.589E-03
            1699            2052     153.110E-03     151.589E-03
            1700            2053     134.752E-03     133.495E-03
            1701            2053     134.752E-03     133.495E-03
            1685            2053     134.752E-03     133.495E-03
            1684            2053     134.752E-03     133.495E-03
            1702            2054     117.124E-03     116.121E-03
            1701            2054     117.124E-03     116.121E-03
            1686            2054     117.124E-03     116.121E-03
            1685            2054     117.124E-03     116.121E-03
            1703            2055     101.102E-03     101.237E-03
            1687            2055     101.102E-03     101.237E-03
            1686            2055     101.102E-03     101.237E-03
            1702            2055     101.102E-03     101.237E-03
            1704            2056     85.3484E-03     87.7563E-03
            1687            2056     85.3484E-03     87.7563E-03
            1703            2056     85.3484E-03     87.7563E-03
            1688            2056     85.3484E-03     87.7563E-03
            1706            2057     365.386E-03     369.074E-03
            1705            2057     365.386E-03     369.074E-03
            1689            2057     365.386E-03     369.074E-03
            1690            2057     365.386E-03     369.074E-03
            1707            2058     358.447E-03     359.587E-03
            1706            2058     358.447E-03     359.587E-03
            1691            2058     358.447E-03     359.587E-03
            1690            2058     358.447E-03     359.587E-03
            1692            2059     341.741E-03     341.699E-03
            1691            2059     341.741E-03     341.699E-03
            1708            2059     341.741E-03     341.699E-03
            1707            2059     341.741E-03     341.699E-03
            1709            2060     320.963E-03     320.625E-03
            1708            2060     320.963E-03     320.625E-03
            1693            2060     320.963E-03     320.625E-03
            1692            2060     320.963E-03     320.625E-03
            1694            2061     299.835E-03     298.702E-03
            1693            2061     299.835E-03     298.702E-03
            1710            2061     299.835E-03     298.702E-03
            1709            2061     299.835E-03     298.702E-03
            1694            2062     278.332E-03     276.664E-03
            1711            2062     278.332E-03     276.664E-03
            1710            2062     278.332E-03     276.664E-03
            1695            2062     278.332E-03     276.664E-03
            1711            2063     256.956E-03     254.632E-03
            1696            2063     256.956E-03     254.632E-03
            1712            2063     256.956E-03     254.632E-03
            1695            2063     256.956E-03     254.632E-03
            1696            2064     235.791E-03     232.945E-03
            1697            2064     235.791E-03     232.945E-03
            1712            2064     235.791E-03     232.945E-03
            1713            2064     235.791E-03     232.945E-03
            1713            2065     215.085E-03     211.776E-03
            1697            2065     215.085E-03     211.776E-03
            1698            2065     215.085E-03     211.776E-03
            1714            2065     215.085E-03     211.776E-03
            1698            2066     195.188E-03     191.552E-03
            1714            2066     195.188E-03     191.552E-03
            1715            2066     195.188E-03     191.552E-03
            1699            2066     195.188E-03     191.552E-03
            1699            2067     176.291E-03     172.464E-03
            1715            2067     176.291E-03     172.464E-03
            1700            2067     176.291E-03     172.464E-03
            1716            2067     176.291E-03     172.464E-03
            1716            2068     159.085E-03     155.449E-03
            1717            2068     159.085E-03     155.449E-03
            1700            2068     159.085E-03     155.449E-03
            1701            2068     159.085E-03     155.449E-03
            1701            2069     143.294E-03     140.309E-03
            1702            2069     143.294E-03     140.309E-03
            1717            2069     143.294E-03     140.309E-03
            1718            2069     143.294E-03     140.309E-03
            1718            2070     129.183E-03     128.132E-03
            1703            2070     129.183E-03     128.132E-03
            1702            2070     129.183E-03     128.132E-03
            1719            2070     129.183E-03     128.132E-03
            1720            2071     111.698E-03     114.186E-03
            1704            2071     111.698E-03     114.186E-03
            1719            2071     111.698E-03     114.186E-03
            1703            2071     111.698E-03     114.186E-03
            1705            2072     394.374E-03     399.636E-03
            1706            2072     394.374E-03     399.636E-03
            1721            2072     394.374E-03     399.636E-03
            1722            2072     394.374E-03     399.636E-03
            1722            2073     371.165E-03     379.712E-03
            1706            2073     371.165E-03     379.712E-03
            1707            2073     371.165E-03     379.712E-03
            1723            2073     371.165E-03     379.712E-03
            1707            2074     343.537E-03     351.642E-03
            1723            2074     343.537E-03     351.642E-03
            1708            2074     343.537E-03     351.642E-03
            1724            2074     343.537E-03     351.642E-03
            1709            2075     318.426E-03     326.016E-03
            1725            2075     318.426E-03     326.016E-03
            1724            2075     318.426E-03     326.016E-03
            1708            2075     318.426E-03     326.016E-03
            1709            2076     293.969E-03     301.333E-03
            1710            2076     293.969E-03     301.333E-03
            1726            2076     293.969E-03     301.333E-03
            1725            2076     293.969E-03     301.333E-03
            1710            2077     270.016E-03     277.296E-03
            1726            2077     270.016E-03     277.296E-03
            1711            2077     270.016E-03     277.296E-03
            1727            2077     270.016E-03     277.296E-03
            1727            2078     246.585E-03     253.919E-03
            1728            2078     246.585E-03     253.919E-03
            1711            2078     246.585E-03     253.919E-03
            1712            2078     246.585E-03     253.919E-03
            1713            2079     223.709E-03     230.982E-03
            1728            2079     223.709E-03     230.982E-03
            1729            2079     223.709E-03     230.982E-03
            1712            2079     223.709E-03     230.982E-03
            1729            2080     201.488E-03     208.736E-03
            1714            2080     201.488E-03     208.736E-03
            1730            2080     201.488E-03     208.736E-03
            1713            2080     201.488E-03     208.736E-03
            1714            2081     180.117E-03     187.229E-03
            1715            2081     180.117E-03     187.229E-03
            1731            2081     180.117E-03     187.229E-03
            1730            2081     180.117E-03     187.229E-03
            1715            2082     160.095E-03     166.978E-03
            1716            2082     160.095E-03     166.978E-03
            1731            2082     160.095E-03     166.978E-03
            1732            2082     160.095E-03     166.978E-03
            1717            2083     141.930E-03     148.174E-03
            1716            2083     141.930E-03     148.174E-03
            1733            2083     141.930E-03     148.174E-03
            1732            2083     141.930E-03     148.174E-03
            1717            2084     126.172E-03     132.466E-03
            1734            2084     126.172E-03     132.466E-03
            1718            2084     126.172E-03     132.466E-03
            1733            2084     126.172E-03     132.466E-03
            1718            2085     111.780E-03     117.347E-03
            1735            2085     111.780E-03     117.347E-03
            1719            2085     111.780E-03     117.347E-03
            1734            2085     111.780E-03     117.347E-03
            1719            2086     92.5068E-03     92.1459E-03
            1736            2086     92.5068E-03     92.1459E-03
            1720            2086     92.5068E-03     92.1459E-03
            1735            2086     92.5068E-03     92.1459E-03
            1721            2087     404.503E-03     413.927E-03
            1737            2087     404.503E-03     413.927E-03
            1738            2087     404.503E-03     413.927E-03
            1722            2087     404.503E-03     413.927E-03
            1738            2088     366.723E-03     379.547E-03
            1739            2088     366.723E-03     379.547E-03
            1722            2088     366.723E-03     379.547E-03
            1723            2088     366.723E-03     379.547E-03
            1723            2089     336.478E-03     350.755E-03
            1740            2089     336.478E-03     350.755E-03
            1724            2089     336.478E-03     350.755E-03
            1739            2089     336.478E-03     350.755E-03
            1741            2090     310.582E-03     325.294E-03
            1740            2090     310.582E-03     325.294E-03
            1724            2090     310.582E-03     325.294E-03
            1725            2090     310.582E-03     325.294E-03
            1725            2091     285.064E-03     300.543E-03
            1741            2091     285.064E-03     300.543E-03
            1742            2091     285.064E-03     300.543E-03
            1726            2091     285.064E-03     300.543E-03
            1742            2092     260.169E-03     276.436E-03
            1743            2092     260.169E-03     276.436E-03
            1726            2092     260.169E-03     276.436E-03
            1727            2092     260.169E-03     276.436E-03
            1743            2093     235.707E-03     252.571E-03
            1728            2093     235.707E-03     252.571E-03
            1727            2093     235.707E-03     252.571E-03
            1744            2093     235.707E-03     252.571E-03
            1728            2094     211.685E-03     229.230E-03
            1745            2094     211.685E-03     229.230E-03
            1744            2094     211.685E-03     229.230E-03
            1729            2094     211.685E-03     229.230E-03
            1729            2095     188.311E-03     206.271E-03
            1745            2095     188.311E-03     206.271E-03
            1730            2095     188.311E-03     206.271E-03
            1746            2095     188.311E-03     206.271E-03
            1731            2096     165.693E-03     184.008E-03
            1747            2096     165.693E-03     184.008E-03
            1746            2096     165.693E-03     184.008E-03
            1730            2096     165.693E-03     184.008E-03
            1731            2097     144.266E-03     162.600E-03
            1732            2097     144.266E-03     162.600E-03
            1748            2097     144.266E-03     162.600E-03
            1747            2097     144.266E-03     162.600E-03
            1733            2098     124.624E-03     142.376E-03
            1748            2098     124.624E-03     142.376E-03
            1749            2098     124.624E-03     142.376E-03
            1732            2098     124.624E-03     142.376E-03
            1734            2099     107.178E-03     123.359E-03
            1750            2099     107.178E-03     123.359E-03
            1749            2099     107.178E-03     123.359E-03
            1733            2099     107.178E-03     123.359E-03
            1750            2100     91.6767E-03     103.275E-03
            1751            2100     91.6767E-03     103.275E-03
            1735            2100     91.6767E-03     103.275E-03
            1734            2100     91.6767E-03     103.275E-03
            1751            2101     76.0167E-03     74.9960E-03
            1752            2101     76.0167E-03     74.9960E-03
            1735            2101     76.0167E-03     74.9960E-03
            1736            2101     76.0167E-03     74.9960E-03
            2369            2543     239.820E-03     255.253E-03
            2370            2543     239.820E-03     255.253E-03
            2386            2543     239.820E-03     255.253E-03
            2385            2543     239.820E-03     255.253E-03
            2387            2544     211.619E-03     229.070E-03
            2370            2544     211.619E-03     229.070E-03
            2386            2544     211.619E-03     229.070E-03
            2371            2544     211.619E-03     229.070E-03
            2371            2545     194.972E-03     212.654E-03
            2372            2545     194.972E-03     212.654E-03
            2388            2545     194.972E-03     212.654E-03
            2387            2545     194.972E-03     212.654E-03
            2372            2546     179.888E-03     197.313E-03
            2389            2546     179.888E-03     197.313E-03
            2373            2546     179.888E-03     197.313E-03
            2388            2546     179.888E-03     197.313E-03
            2389            2547     164.329E-03     181.676E-03
            2374            2547     164.329E-03     181.676E-03
            2373            2547     164.329E-03     181.676E-03
            2390            2547     164.329E-03     181.676E-03
            2375            2548     149.048E-03     166.436E-03
            2391            2548     149.048E-03     166.436E-03
            2374            2548     149.048E-03     166.436E-03
            2390            2548     149.048E-03     166.436E-03
            2392            2549     133.964E-03     151.124E-03
            2391            2549     133.964E-03     151.124E-03
            2375            2549     133.964E-03     151.124E-03
            2376            2549     133.964E-03     151.124E-03
            2376            2550     119.032E-03     136.108E-03
            2377            2550     119.032E-03     136.108E-03
            2392            2550     119.032E-03     136.108E-03
            2393            2550     119.032E-03     136.108E-03
            2378            2551     104.442E-03     121.181E-03
            2393            2551     104.442E-03     121.181E-03
            2394            2551     104.442E-03     121.181E-03
            2377            2551     104.442E-03     121.181E-03
            2378            2552     90.2147E-03     106.614E-03
            2394            2552     90.2147E-03     106.614E-03
            2395            2552     90.2147E-03     106.614E-03
            2379            2552     90.2147E-03     106.614E-03
            2396            2553     76.6886E-03     92.3966E-03
            2379            2553     76.6886E-03     92.3966E-03
            2380            2553     76.6886E-03     92.3966E-03
            2395            2553     76.6886E-03     92.3966E-03
            2380            2554     64.1963E-03     78.8806E-03
            2381            2554     64.1963E-03     78.8806E-03
            2396            2554     64.1963E-03     78.8806E-03
            2397            2554     64.1963E-03     78.8806E-03
            2398            2555     53.6693E-03     66.3753E-03
            2397            2555     53.6693E-03     66.3753E-03
            2382            2555     53.6693E-03     66.3753E-03
            2381            2555     53.6693E-03     66.3753E-03
            2383            2556     47.2245E-03     56.4920E-03
            2398            2556     47.2245E-03     56.4920E-03
            2399            2556     47.2245E-03     56.4920E-03
            2382            2556     47.2245E-03     56.4920E-03
            2399            2557     45.1514E-03     47.2659E-03
            2400            2557     45.1514E-03     47.2659E-03
            2383            2557     45.1514E-03     47.2659E-03
            2384            2557     45.1514E-03     47.2659E-03
            2385            2558     225.774E-03     214.424E-03
            2402            2558     225.774E-03     214.424E-03
            2401            2558     225.774E-03     214.424E-03
            2386            2558     225.774E-03     214.424E-03
            2403            2559     225.704E-03     216.639E-03
            2402            2559     225.704E-03     216.639E-03
            2386            2559     225.704E-03     216.639E-03
            2387            2559     225.704E-03     216.639E-03
            2388            2560     209.705E-03     200.766E-03
            2387            2560     209.705E-03     200.766E-03
            2403            2560     209.705E-03     200.766E-03
            2404            2560     209.705E-03     200.766E-03
            2388            2561     194.654E-03     185.512E-03
            2404            2561     194.654E-03     185.512E-03
            2389            2561     194.654E-03     185.512E-03
            2405            2561     194.654E-03     185.512E-03
            2406            2562     179.664E-03     170.822E-03
            2405            2562     179.664E-03     170.822E-03
            2389            2562     179.664E-03     170.822E-03
            2390            2562     179.664E-03     170.822E-03
            2390            2563     164.841E-03     155.996E-03
            2407            2563     164.841E-03     155.996E-03
            2406            2563     164.841E-03     155.996E-03
            2391            2563     164.841E-03     155.996E-03
            2408            2564     149.952E-03     141.348E-03
            2391            2564     149.952E-03     141.348E-03
            2407            2564     149.952E-03     141.348E-03
            2392            2564     149.952E-03     141.348E-03
            2408            2565     135.325E-03     126.841E-03
            2409            2565     135.325E-03     126.841E-03
            2392            2565     135.325E-03     126.841E-03
            2393            2565     135.325E-03     126.841E-03
            2410            2566     120.894E-03     112.726E-03
            2409            2566     120.894E-03     112.726E-03
            2393            2566     120.894E-03     112.726E-03
            2394            2566     120.894E-03     112.726E-03
            2411            2567     106.884E-03     99.0509E-03
            2410            2567     106.884E-03     99.0509E-03
            2395            2567     106.884E-03     99.0509E-03
            2394            2567     106.884E-03     99.0509E-03
            2411            2568     93.4133E-03     86.1574E-03
            2412            2568     93.4133E-03     86.1574E-03
            2396            2568     93.4133E-03     86.1574E-03
            2395            2568     93.4133E-03     86.1574E-03
            2413            2569     80.7675E-03     74.3191E-03
            2396            2569     80.7675E-03     74.3191E-03
            2412            2569     80.7675E-03     74.3191E-03
            2397            2569     80.7675E-03     74.3191E-03
            2413            2570     69.5888E-03     64.0986E-03
            2414            2570     69.5888E-03     64.0986E-03
            2397            2570     69.5888E-03     64.0986E-03
            2398            2570     69.5888E-03     64.0986E-03
            2415            2571     60.5327E-03     56.9943E-03
            2414            2571     60.5327E-03     56.9943E-03
            2399            2571     60.5327E-03     56.9943E-03
            2398            2571     60.5327E-03     56.9943E-03
            2415            2572     53.7486E-03     52.8198E-03
            2416            2572     53.7486E-03     52.8198E-03
            2399            2572     53.7486E-03     52.8198E-03
            2400            2572     53.7486E-03     52.8198E-03
            2402            2573     195.215E-03     199.211E-03
            2417            2573     195.215E-03     199.211E-03
            2418            2573     195.215E-03     199.211E-03
            2401            2573     195.215E-03     199.211E-03
            2418            2574     176.896E-03     174.659E-03
            2403            2574     176.896E-03     174.659E-03
            2402            2574     176.896E-03     174.659E-03
            2419            2574     176.896E-03     174.659E-03
            2403            2575     160.643E-03     157.057E-03
            2420            2575     160.643E-03     157.057E-03
            2404            2575     160.643E-03     157.057E-03
            2419            2575     160.643E-03     157.057E-03
            2421            2576     146.609E-03     143.271E-03
            2405            2576     146.609E-03     143.271E-03
            2404            2576     146.609E-03     143.271E-03
            2420            2576     146.609E-03     143.271E-03
            2421            2577     135.486E-03     132.166E-03
            2406            2577     135.486E-03     132.166E-03
            2422            2577     135.486E-03     132.166E-03
            2405            2577     135.486E-03     132.166E-03
            2406            2578     124.821E-03     121.424E-03
            2423            2578     124.821E-03     121.424E-03
            2422            2578     124.821E-03     121.424E-03
            2407            2578     124.821E-03     121.424E-03
            2407            2579     114.410E-03     111.070E-03
            2408            2579     114.410E-03     111.070E-03
            2424            2579     114.410E-03     111.070E-03
            2423            2579     114.410E-03     111.070E-03
            2408            2580     104.204E-03     100.783E-03
            2424            2580     104.204E-03     100.783E-03
            2409            2580     104.204E-03     100.783E-03
            2425            2580     104.204E-03     100.783E-03
            2409            2581     94.1930E-03     90.8100E-03
            2426            2581     94.1930E-03     90.8100E-03
            2410            2581     94.1930E-03     90.8100E-03
            2425            2581     94.1930E-03     90.8100E-03
            2427            2582     84.6337E-03     81.1919E-03
            2426            2582     84.6337E-03     81.1919E-03
            2411            2582     84.6337E-03     81.1919E-03
            2410            2582     84.6337E-03     81.1919E-03
            2411            2583     75.5387E-03     72.1230E-03
            2412            2583     75.5387E-03     72.1230E-03
            2428            2583     75.5387E-03     72.1230E-03
            2427            2583     75.5387E-03     72.1230E-03
            2412            2584     67.2850E-03     63.9441E-03
            2428            2584     67.2850E-03     63.9441E-03
            2413            2584     67.2850E-03     63.9441E-03
            2429            2584     67.2850E-03     63.9441E-03
            2430            2585     59.9750E-03     56.8569E-03
            2429            2585     59.9750E-03     56.8569E-03
            2414            2585     59.9750E-03     56.8569E-03
            2413            2585     59.9750E-03     56.8569E-03
            2415            2586     53.8409E-03     51.9863E-03
            2414            2586     53.8409E-03     51.9863E-03
            2431            2586     53.8409E-03     51.9863E-03
            2430            2586     53.8409E-03     51.9863E-03
            2416            2587     47.3912E-03     48.2686E-03
            2415            2587     47.3912E-03     48.2686E-03
            2431            2587     47.3912E-03     48.2686E-03
            2432            2587     47.3912E-03     48.2686E-03
            2433            2588     178.976E-03     190.594E-03
            2434            2588     178.976E-03     190.594E-03
            2418            2588     178.976E-03     190.594E-03
            2417            2588     178.976E-03     190.594E-03
            2418            2589     128.716E-03     142.437E-03
            2434            2589     128.716E-03     142.437E-03
            2419            2589     128.716E-03     142.437E-03
            2435            2589     128.716E-03     142.437E-03
            2435            2590     106.091E-03     119.622E-03
            2420            2590     106.091E-03     119.622E-03
            2419            2590     106.091E-03     119.622E-03
            2436            2590     106.091E-03     119.622E-03
            2421            2591     94.7509E-03     107.932E-03
            2436            2591     94.7509E-03     107.932E-03
            2420            2591     94.7509E-03     107.932E-03
            2437            2591     94.7509E-03     107.932E-03
            2438            2592     86.4542E-03     99.4432E-03
            2437            2592     86.4542E-03     99.4432E-03
            2421            2592     86.4542E-03     99.4432E-03
            2422            2592     86.4542E-03     99.4432E-03
            2438            2593     79.8930E-03     92.5449E-03
            2422            2593     79.8930E-03     92.5449E-03
            2423            2593     79.8930E-03     92.5449E-03
            2439            2593     79.8930E-03     92.5449E-03
            2423            2594     73.5900E-03     85.8797E-03
            2424            2594     73.5900E-03     85.8797E-03
            2440            2594     73.5900E-03     85.8797E-03
            2439            2594     73.5900E-03     85.8797E-03
            2424            2595     67.6268E-03     79.4934E-03
            2425            2595     67.6268E-03     79.4934E-03
            2441            2595     67.6268E-03     79.4934E-03
            2440            2595     67.6268E-03     79.4934E-03
            2426            2596     61.9347E-03     73.1979E-03
            2425            2596     61.9347E-03     73.1979E-03
            2441            2596     61.9347E-03     73.1979E-03
            2442            2596     61.9347E-03     73.1979E-03
            2427            2597     56.6855E-03     67.1728E-03
            2426            2597     56.6855E-03     67.1728E-03
            2442            2597     56.6855E-03     67.1728E-03
            2443            2597     56.6855E-03     67.1728E-03
            2428            2598     52.0336E-03     61.3979E-03
            2444            2598     52.0336E-03     61.3979E-03
            2443            2598     52.0336E-03     61.3979E-03
            2427            2598     52.0336E-03     61.3979E-03
            2428            2599     48.1696E-03     55.9901E-03
            2444            2599     48.1696E-03     55.9901E-03
            2429            2599     48.1696E-03     55.9901E-03
            2445            2599     48.1696E-03     55.9901E-03
            2430            2600     45.0818E-03     51.0329E-03
            2445            2600     45.0818E-03     51.0329E-03
            2429            2600     45.0818E-03     51.0329E-03
            2446            2600     45.0818E-03     51.0329E-03
            2430            2601     42.9451E-03     47.1425E-03
            2446            2601     42.9451E-03     47.1425E-03
            2447            2601     42.9451E-03     47.1425E-03
            2431            2601     42.9451E-03     47.1425E-03
            2432            2602     41.5838E-03     43.7164E-03
            2448            2602     41.5838E-03     43.7164E-03
            2447            2602     41.5838E-03     43.7164E-03
            2431            2602     41.5838E-03     43.7164E-03
            2449            2603     162.991E-03     164.011E-03
            2433            2603     162.991E-03     164.011E-03
            2450            2603     162.991E-03     164.011E-03
            2434            2603     162.991E-03     164.011E-03
            2451            2604     130.595E-03     136.663E-03
            2450            2604     130.595E-03     136.663E-03
            2435            2604     130.595E-03     136.663E-03
            2434            2604     130.595E-03     136.663E-03
            2451            2605     110.115E-03     118.854E-03
            2436            2605     110.115E-03     118.854E-03
            2452            2605     110.115E-03     118.854E-03
            2435            2605     110.115E-03     118.854E-03
            2436            2606     99.8897E-03     108.945E-03
            2437            2606     99.8897E-03     108.945E-03
            2453            2606     99.8897E-03     108.945E-03
            2452            2606     99.8897E-03     108.945E-03
            2438            2607     92.4703E-03     101.013E-03
            2454            2607     92.4703E-03     101.013E-03
            2437            2607     92.4703E-03     101.013E-03
            2453            2607     92.4703E-03     101.013E-03
            2454            2608     85.4974E-03     93.7415E-03
            2438            2608     85.4974E-03     93.7415E-03
            2439            2608     85.4974E-03     93.7415E-03
            2455            2608     85.4974E-03     93.7415E-03
            2455            2609     79.0401E-03     86.9363E-03
            2456            2609     79.0401E-03     86.9363E-03
            2439            2609     79.0401E-03     86.9363E-03
            2440            2609     79.0401E-03     86.9363E-03
            2440            2610     72.8377E-03     80.3905E-03
            2441            2610     72.8377E-03     80.3905E-03
            2456            2610     72.8377E-03     80.3905E-03
            2457            2610     72.8377E-03     80.3905E-03
            2458            2611     67.0885E-03     74.2179E-03
            2441            2611     67.0885E-03     74.2179E-03
            2442            2611     67.0885E-03     74.2179E-03
            2457            2611     67.0885E-03     74.2179E-03
            2458            2612     61.8256E-03     68.3866E-03
            2442            2612     61.8256E-03     68.3866E-03
            2459            2612     61.8256E-03     68.3866E-03
            2443            2612     61.8256E-03     68.3866E-03
            2459            2613     57.2327E-03     63.0755E-03
            2460            2613     57.2327E-03     63.0755E-03
            2443            2613     57.2327E-03     63.0755E-03
            2444            2613     57.2327E-03     63.0755E-03
            2460            2614     53.4584E-03     58.1336E-03
            2445            2614     53.4584E-03     58.1336E-03
            2461            2614     53.4584E-03     58.1336E-03
            2444            2614     53.4584E-03     58.1336E-03
            2446            2615     50.4625E-03     53.7531E-03
            2461            2615     50.4625E-03     53.7531E-03
            2462            2615     50.4625E-03     53.7531E-03
            2445            2615     50.4625E-03     53.7531E-03
            2446            2616     48.4662E-03     49.6460E-03
            2462            2616     48.4662E-03     49.6460E-03
            2447            2616     48.4662E-03     49.6460E-03
            2463            2616     48.4662E-03     49.6460E-03
            2464            2617     47.3718E-03     44.4439E-03
            2447            2617     47.3718E-03     44.4439E-03
            2448            2617     47.3718E-03     44.4439E-03
            2463            2617     47.3718E-03     44.4439E-03
            2450            2618     133.533E-03     137.100E-03
            2465            2618     133.533E-03     137.100E-03
            2466            2618     133.533E-03     137.100E-03
            2449            2618     133.533E-03     137.100E-03
            2467            2619     118.980E-03     122.795E-03
            2466            2619     118.980E-03     122.795E-03
            2450            2619     118.980E-03     122.795E-03
            2451            2619     118.980E-03     122.795E-03
            2467            2620     111.261E-03     116.064E-03
            2451            2620     111.261E-03     116.064E-03
            2452            2620     111.261E-03     116.064E-03
            2468            2620     111.261E-03     116.064E-03
            2469            2621     104.423E-03     109.095E-03
            2452            2621     104.423E-03     109.095E-03
            2468            2621     104.423E-03     109.095E-03
            2453            2621     104.423E-03     109.095E-03
            2470            2622     97.7430E-03     101.964E-03
            2453            2622     97.7430E-03     101.964E-03
            2469            2622     97.7430E-03     101.964E-03
            2454            2622     97.7430E-03     101.964E-03
            2454            2623     90.6984E-03     94.5980E-03
            2455            2623     90.6984E-03     94.5980E-03
            2471            2623     90.6984E-03     94.5980E-03
            2470            2623     90.6984E-03     94.5980E-03
            2471            2624     83.9398E-03     87.6413E-03
            2472            2624     83.9398E-03     87.6413E-03
            2455            2624     83.9398E-03     87.6413E-03
            2456            2624     83.9398E-03     87.6413E-03
            2456            2625     77.6188E-03     81.0941E-03
            2457            2625     77.6188E-03     81.0941E-03
            2473            2625     77.6188E-03     81.0941E-03
            2472            2625     77.6188E-03     81.0941E-03
            2458            2626     71.7954E-03     75.0522E-03
            2457            2626     71.7954E-03     75.0522E-03
            2474            2626     71.7954E-03     75.0522E-03
            2473            2626     71.7954E-03     75.0522E-03
            2459            2627     66.5923E-03     69.5793E-03
            2475            2627     66.5923E-03     69.5793E-03
            2458            2627     66.5923E-03     69.5793E-03
            2474            2627     66.5923E-03     69.5793E-03
            2460            2628     62.0335E-03     64.6625E-03
            2459            2628     62.0335E-03     64.6625E-03
            2475            2628     62.0335E-03     64.6625E-03
            2476            2628     62.0335E-03     64.6625E-03
            2460            2629     58.2333E-03     60.4531E-03
            2476            2629     58.2333E-03     60.4531E-03
            2477            2629     58.2333E-03     60.4531E-03
            2461            2629     58.2333E-03     60.4531E-03
            2462            2630     55.5161E-03     56.4108E-03
            2478            2630     55.5161E-03     56.4108E-03
            2461            2630     55.5161E-03     56.4108E-03
            2477            2630     55.5161E-03     56.4108E-03
            2478            2631     53.6842E-03     51.5991E-03
            2462            2631     53.6842E-03     51.5991E-03
            2479            2631     53.6842E-03     51.5991E-03
            2463            2631     53.6842E-03     51.5991E-03
            2480            2632     51.9236E-03     46.8949E-03
            2464            2632     51.9236E-03     46.8949E-03
            2463            2632     51.9236E-03     46.8949E-03
            2479            2632     51.9236E-03     46.8949E-03
            2481            2633     106.064E-03     106.490E-03
            2465            2633     106.064E-03     106.490E-03
            2466            2633     106.064E-03     106.490E-03
            2482            2633     106.064E-03     106.490E-03
            2467            2634     101.858E-03     105.172E-03
            2482            2634     101.858E-03     105.172E-03
            2466            2634     101.858E-03     105.172E-03
            2483            2634     101.858E-03     105.172E-03
            2483            2635     107.702E-03     109.109E-03
            2484            2635     107.702E-03     109.109E-03
            2468            2635     107.702E-03     109.109E-03
            2467            2635     107.702E-03     109.109E-03
            2468            2636     106.714E-03     106.600E-03
            2469            2636     106.714E-03     106.600E-03
            2485            2636     106.714E-03     106.600E-03
            2484            2636     106.714E-03     106.600E-03
            2485            2637     100.809E-03     100.573E-03
            2470            2637     100.809E-03     100.573E-03
            2486            2637     100.809E-03     100.573E-03
            2469            2637     100.809E-03     100.573E-03
            2487            2638     94.4201E-03     94.0132E-03
            2471            2638     94.4201E-03     94.0132E-03
            2486            2638     94.4201E-03     94.0132E-03
            2470            2638     94.4201E-03     94.0132E-03
            2471            2639     87.8003E-03     87.3748E-03
            2472            2639     87.8003E-03     87.3748E-03
            2488            2639     87.8003E-03     87.3748E-03
            2487            2639     87.8003E-03     87.3748E-03
            2489            2640     81.6605E-03     81.2468E-03
            2473            2640     81.6605E-03     81.2468E-03
            2472            2640     81.6605E-03     81.2468E-03
            2488            2640     81.6605E-03     81.2468E-03
            2473            2641     76.0257E-03     75.6296E-03
            2489            2641     76.0257E-03     75.6296E-03
            2490            2641     76.0257E-03     75.6296E-03
            2474            2641     76.0257E-03     75.6296E-03
            2474            2642     70.9600E-03     70.6245E-03
            2475            2642     70.9600E-03     70.6245E-03
            2491            2642     70.9600E-03     70.6245E-03
            2490            2642     70.9600E-03     70.6245E-03
            2475            2643     66.5218E-03     66.2688E-03
            2491            2643     66.5218E-03     66.2688E-03
            2492            2643     66.5218E-03     66.2688E-03
            2476            2643     66.5218E-03     66.2688E-03
            2492            2644     62.6894E-03     62.6136E-03
            2493            2644     62.6894E-03     62.6136E-03
            2477            2644     62.6894E-03     62.6136E-03
            2476            2644     62.6894E-03     62.6136E-03
            2478            2645     59.6823E-03     59.4644E-03
            2494            2645     59.6823E-03     59.4644E-03
            2493            2645     59.6823E-03     59.4644E-03
            2477            2645     59.6823E-03     59.4644E-03
            2479            2646     57.7605E-03     55.7182E-03
            2494            2646     57.7605E-03     55.7182E-03
            2495            2646     57.7605E-03     55.7182E-03
            2478            2646     57.7605E-03     55.7182E-03
            2495            2647     55.9416E-03     51.0957E-03
            2496            2647     55.9416E-03     51.0957E-03
            2480            2647     55.9416E-03     51.0957E-03
            2479            2647     55.9416E-03     51.0957E-03
            2481            2648     78.5457E-03     77.8093E-03
            2482            2648     78.5457E-03     77.8093E-03
            2497            2648     78.5457E-03     77.8093E-03
            2498            2648     78.5457E-03     77.8093E-03
            2482            2649     88.9507E-03     86.9797E-03
            2499            2649     88.9507E-03     86.9797E-03
            2483            2649     88.9507E-03     86.9797E-03
            2498            2649     88.9507E-03     86.9797E-03
            2500            2650     103.058E-03     98.6887E-03
            2483            2650     103.058E-03     98.6887E-03
            2499            2650     103.058E-03     98.6887E-03
            2484            2650     103.058E-03     98.6887E-03
            2484            2651     104.602E-03     99.6744E-03
            2500            2651     104.602E-03     99.6744E-03
            2485            2651     104.602E-03     99.6744E-03
            2501            2651     104.602E-03     99.6744E-03
            2485            2652     101.405E-03     96.4038E-03
            2502            2652     101.405E-03     96.4038E-03
            2501            2652     101.405E-03     96.4038E-03
            2486            2652     101.405E-03     96.4038E-03
            2487            2653     96.0469E-03     91.3402E-03
            2503            2653     96.0469E-03     91.3402E-03
            2502            2653     96.0469E-03     91.3402E-03
            2486            2653     96.0469E-03     91.3402E-03
            2487            2654     90.4888E-03     86.0343E-03
            2488            2654     90.4888E-03     86.0343E-03
            2504            2654     90.4888E-03     86.0343E-03
            2503            2654     90.4888E-03     86.0343E-03
            2504            2655     84.9734E-03     80.8291E-03
            2505            2655     84.9734E-03     80.8291E-03
            2489            2655     84.9734E-03     80.8291E-03
            2488            2655     84.9734E-03     80.8291E-03
            2489            2656     79.8413E-03     76.0328E-03
            2505            2656     79.8413E-03     76.0328E-03
            2506            2656     79.8413E-03     76.0328E-03
            2490            2656     79.8413E-03     76.0328E-03
            2490            2657     75.1104E-03     71.6904E-03
            2506            2657     75.1104E-03     71.6904E-03
            2491            2657     75.1104E-03     71.6904E-03
            2507            2657     75.1104E-03     71.6904E-03
            2491            2658     70.8381E-03     67.9594E-03
            2508            2658     70.8381E-03     67.9594E-03
            2492            2658     70.8381E-03     67.9594E-03
            2507            2658     70.8381E-03     67.9594E-03
            2508            2659     67.0769E-03     64.7788E-03
            2492            2659     67.0769E-03     64.7788E-03
            2493            2659     67.0769E-03     64.7788E-03
            2509            2659     67.0769E-03     64.7788E-03
            2494            2660     63.5285E-03     62.5595E-03
            2510            2660     63.5285E-03     62.5595E-03
            2509            2660     63.5285E-03     62.5595E-03
            2493            2660     63.5285E-03     62.5595E-03
            2494            2661     60.5986E-03     61.2281E-03
            2495            2661     60.5986E-03     61.2281E-03
            2511            2661     60.5986E-03     61.2281E-03
            2510            2661     60.5986E-03     61.2281E-03
            2496            2662     59.3076E-03     58.0255E-03
            2511            2662     59.3076E-03     58.0255E-03
            2495            2662     59.3076E-03     58.0255E-03
            2512            2662     59.3076E-03     58.0255E-03
            2513            2663     59.2601E-03     56.8341E-03
            2514            2663     59.2601E-03     56.8341E-03
            2497            2663     59.2601E-03     56.8341E-03
            2498            2663     59.2601E-03     56.8341E-03
            2498            2664     80.0014E-03     68.3393E-03
            2515            2664     80.0014E-03     68.3393E-03
            2499            2664     80.0014E-03     68.3393E-03
            2514            2664     80.0014E-03     68.3393E-03
            2499            2665     95.2298E-03     83.8478E-03
            2515            2665     95.2298E-03     83.8478E-03
            2500            2665     95.2298E-03     83.8478E-03
            2516            2665     95.2298E-03     83.8478E-03
            2501            2666     99.6112E-03     89.2897E-03
            2500            2666     99.6112E-03     89.2897E-03
            2516            2666     99.6112E-03     89.2897E-03
            2517            2666     99.6112E-03     89.2897E-03
            2502            2667     99.2737E-03     89.7136E-03
            2501            2667     99.2737E-03     89.7136E-03
            2517            2667     99.2737E-03     89.7136E-03
            2518            2667     99.2737E-03     89.7136E-03
            2519            2668     96.3773E-03     87.4426E-03
            2518            2668     96.3773E-03     87.4426E-03
            2502            2668     96.3773E-03     87.4426E-03
            2503            2668     96.3773E-03     87.4426E-03
            2520            2669     92.3514E-03     84.1146E-03
            2503            2669     92.3514E-03     84.1146E-03
            2504            2669     92.3514E-03     84.1146E-03
            2519            2669     92.3514E-03     84.1146E-03
            2504            2670     87.9901E-03     80.3608E-03
            2505            2670     87.9901E-03     80.3608E-03
            2520            2670     87.9901E-03     80.3608E-03
            2521            2670     87.9901E-03     80.3608E-03
            2522            2671     83.5431E-03     76.6219E-03
            2506            2671     83.5431E-03     76.6219E-03
            2505            2671     83.5431E-03     76.6219E-03
            2521            2671     83.5431E-03     76.6219E-03
            2507            2672     79.2865E-03     73.1167E-03
            2522            2672     79.2865E-03     73.1167E-03
            2523            2672     79.2865E-03     73.1167E-03
            2506            2672     79.2865E-03     73.1167E-03
            2508            2673     75.2476E-03     69.9501E-03
            2524            2673     75.2476E-03     69.9501E-03
            2507            2673     75.2476E-03     69.9501E-03
            2523            2673     75.2476E-03     69.9501E-03
            2525            2674     71.5478E-03     67.3302E-03
            2524            2674     71.5478E-03     67.3302E-03
            2508            2674     71.5478E-03     67.3302E-03
            2509            2674     71.5478E-03     67.3302E-03
            2510            2675     68.0130E-03     65.3105E-03
            2525            2675     68.0130E-03     65.3105E-03
            2509            2675     68.0130E-03     65.3105E-03
            2526            2675     68.0130E-03     65.3105E-03
            2511            2676     64.3602E-03     64.7708E-03
            2526            2676     64.3602E-03     64.7708E-03
            2510            2676     64.3602E-03     64.7708E-03
            2527            2676     64.3602E-03     64.7708E-03
            2512            2677     60.6429E-03     65.3760E-03
            2527            2677     60.6429E-03     65.3760E-03
            2528            2677     60.6429E-03     65.3760E-03
            2511            2677     60.6429E-03     65.3760E-03
            2513            2678     32.4422E-03     30.7446E-03
            2530            2678     32.4422E-03     30.7446E-03
            2529            2678     32.4422E-03     30.7446E-03
            2514            2678     32.4422E-03     30.7446E-03
            2515            2679     43.5797E-03     34.8806E-03
            2530            2679     43.5797E-03     34.8806E-03
            2514            2679     43.5797E-03     34.8806E-03
            2531            2679     43.5797E-03     34.8806E-03
            2532            2680     49.9162E-03     42.6702E-03
            2515            2680     49.9162E-03     42.6702E-03
            2516            2680     49.9162E-03     42.6702E-03
            2531            2680     49.9162E-03     42.6702E-03
            2533            2681     52.9967E-03     46.5635E-03
            2516            2681     52.9967E-03     46.5635E-03
            2532            2681     52.9967E-03     46.5635E-03
            2517            2681     52.9967E-03     46.5635E-03
            2518            2682     53.0638E-03     47.2724E-03
            2533            2682     53.0638E-03     47.2724E-03
            2517            2682     53.0638E-03     47.2724E-03
            2534            2682     53.0638E-03     47.2724E-03
            2518            2683     51.9970E-03     46.6536E-03
            2535            2683     51.9970E-03     46.6536E-03
            2534            2683     51.9970E-03     46.6536E-03
            2519            2683     51.9970E-03     46.6536E-03
            2535            2684     50.0384E-03     45.1202E-03
            2520            2684     50.0384E-03     45.1202E-03
            2519            2684     50.0384E-03     45.1202E-03
            2536            2684     50.0384E-03     45.1202E-03
            2520            2685     47.7644E-03     43.2461E-03
            2521            2685     47.7644E-03     43.2461E-03
            2537            2685     47.7644E-03     43.2461E-03
            2536            2685     47.7644E-03     43.2461E-03
            2538            2686     45.3397E-03     41.2729E-03
            2522            2686     45.3397E-03     41.2729E-03
            2537            2686     45.3397E-03     41.2729E-03
            2521            2686     45.3397E-03     41.2729E-03
            2539            2687     42.9234E-03     39.3192E-03
            2522            2687     42.9234E-03     39.3192E-03
            2538            2687     42.9234E-03     39.3192E-03
            2523            2687     42.9234E-03     39.3192E-03
            2540            2688     40.5649E-03     37.4880E-03
            2539            2688     40.5649E-03     37.4880E-03
            2524            2688     40.5649E-03     37.4880E-03
            2523            2688     40.5649E-03     37.4880E-03
            2524            2689     38.3454E-03     35.9167E-03
            2541            2689     38.3454E-03     35.9167E-03
            2525            2689     38.3454E-03     35.9167E-03
            2540            2689     38.3454E-03     35.9167E-03
            2541            2690     36.1951E-03     34.4461E-03
            2542            2690     36.1951E-03     34.4461E-03
            2526            2690     36.1951E-03     34.4461E-03
            2525            2690     36.1951E-03     34.4461E-03
            2527            2691     34.1289E-03     33.7202E-03
            2526            2691     34.1289E-03     33.7202E-03
            2542            2691     34.1289E-03     33.7202E-03
            2543            2691     34.1289E-03     33.7202E-03
            2544            2692     30.8340E-03     34.0700E-03
            2527            2692     30.8340E-03     34.0700E-03
            2528            2692     30.8340E-03     34.0700E-03
            2543            2692     30.8340E-03     34.0700E-03
            2658            2768     363.251E-03     370.859E-03
            2641            2768     363.251E-03     370.859E-03
            2657            2768     363.251E-03     370.859E-03
            2642            2768     363.251E-03     370.859E-03
            2642            2769     341.170E-03     347.671E-03
            2643            2769     341.170E-03     347.671E-03
            2659            2769     341.170E-03     347.671E-03
            2658            2769     341.170E-03     347.671E-03
            2659            2770     316.045E-03     322.538E-03
            2644            2770     316.045E-03     322.538E-03
            2660            2770     316.045E-03     322.538E-03
            2643            2770     316.045E-03     322.538E-03
            2661            2771     291.133E-03     298.285E-03
            2660            2771     291.133E-03     298.285E-03
            2645            2771     291.133E-03     298.285E-03
            2644            2771     291.133E-03     298.285E-03
            2646            2772     266.725E-03     273.178E-03
            2661            2772     266.725E-03     273.178E-03
            2662            2772     266.725E-03     273.178E-03
            2645            2772     266.725E-03     273.178E-03
            2646            2773     241.788E-03     248.851E-03
            2662            2773     241.788E-03     248.851E-03
            2663            2773     241.788E-03     248.851E-03
            2647            2773     241.788E-03     248.851E-03
            2664            2774     217.461E-03     224.121E-03
            2648            2774     217.461E-03     224.121E-03
            2647            2774     217.461E-03     224.121E-03
            2663            2774     217.461E-03     224.121E-03
            2665            2775     192.944E-03     199.900E-03
            2648            2775     192.944E-03     199.900E-03
            2664            2775     192.944E-03     199.900E-03
            2649            2775     192.944E-03     199.900E-03
            2649            2776     168.845E-03     175.679E-03
            2665            2776     168.845E-03     175.679E-03
            2650            2776     168.845E-03     175.679E-03
            2666            2776     168.845E-03     175.679E-03
            2667            2777     144.944E-03     151.899E-03
            2650            2777     144.944E-03     151.899E-03
            2666            2777     144.944E-03     151.899E-03
            2651            2777     144.944E-03     151.899E-03
            2668            2778     121.594E-03     128.572E-03
            2667            2778     121.594E-03     128.572E-03
            2652            2778     121.594E-03     128.572E-03
            2651            2778     121.594E-03     128.572E-03
            2653            2779     99.1264E-03     106.142E-03
            2669            2779     99.1264E-03     106.142E-03
            2652            2779     99.1264E-03     106.142E-03
            2668            2779     99.1264E-03     106.142E-03
            2670            2780     78.4202E-03     85.2234E-03
            2653            2780     78.4202E-03     85.2234E-03
            2654            2780     78.4202E-03     85.2234E-03
            2669            2780     78.4202E-03     85.2234E-03
            2654            2781     61.8991E-03     67.6709E-03
            2671            2781     61.8991E-03     67.6709E-03
            2670            2781     61.8991E-03     67.6709E-03
            2655            2781     61.8991E-03     67.6709E-03
            2672            2782     52.3153E-03     54.1396E-03
            2671            2782     52.3153E-03     54.1396E-03
            2656            2782     52.3153E-03     54.1396E-03
            2655            2782     52.3153E-03     54.1396E-03
            2658            2783     342.889E-03     347.616E-03
            2657            2783     342.889E-03     347.616E-03
            2674            2783     342.889E-03     347.616E-03
            2673            2783     342.889E-03     347.616E-03
            2659            2784     317.038E-03     319.094E-03
            2674            2784     317.038E-03     319.094E-03
            2675            2784     317.038E-03     319.094E-03
            2658            2784     317.038E-03     319.094E-03
            2675            2785     292.714E-03     294.876E-03
            2676            2785     292.714E-03     294.876E-03
            2659            2785     292.714E-03     294.876E-03
            2660            2785     292.714E-03     294.876E-03
            2677            2786     270.488E-03     273.284E-03
            2676            2786     270.488E-03     273.284E-03
            2661            2786     270.488E-03     273.284E-03
            2660            2786     270.488E-03     273.284E-03
            2661            2787     247.968E-03     250.352E-03
            2662            2787     247.968E-03     250.352E-03
            2678            2787     247.968E-03     250.352E-03
            2677            2787     247.968E-03     250.352E-03
            2678            2788     225.074E-03     227.917E-03
            2663            2788     225.074E-03     227.917E-03
            2662            2788     225.074E-03     227.917E-03
            2679            2788     225.074E-03     227.917E-03
            2663            2789     202.672E-03     205.212E-03
            2680            2789     202.672E-03     205.212E-03
            2679            2789     202.672E-03     205.212E-03
            2664            2789     202.672E-03     205.212E-03
            2664            2790     180.104E-03     182.934E-03
            2665            2790     180.104E-03     182.934E-03
            2681            2790     180.104E-03     182.934E-03
            2680            2790     180.104E-03     182.934E-03
            2681            2791     157.940E-03     160.669E-03
            2666            2791     157.940E-03     160.669E-03
            2682            2791     157.940E-03     160.669E-03
            2665            2791     157.940E-03     160.669E-03
            2682            2792     135.950E-03     138.854E-03
            2666            2792     135.950E-03     138.854E-03
            2667            2792     135.950E-03     138.854E-03
            2683            2792     135.950E-03     138.854E-03
            2667            2793     114.518E-03     117.454E-03
            2684            2793     114.518E-03     117.454E-03
            2668            2793     114.518E-03     117.454E-03
            2683            2793     114.518E-03     117.454E-03
            2685            2794     93.8932E-03     97.0176E-03
            2669            2794     93.8932E-03     97.0176E-03
            2668            2794     93.8932E-03     97.0176E-03
            2684            2794     93.8932E-03     97.0176E-03
            2670            2795     74.8224E-03     78.2542E-03
            2686            2795     74.8224E-03     78.2542E-03
            2685            2795     74.8224E-03     78.2542E-03
            2669            2795     74.8224E-03     78.2542E-03
            2686            2796     59.7313E-03     62.4583E-03
            2671            2796     59.7313E-03     62.4583E-03
            2670            2796     59.7313E-03     62.4583E-03
            2687            2796     59.7313E-03     62.4583E-03
            2688            2797     48.3660E-03     47.2401E-03
            2672            2797     48.3660E-03     47.2401E-03
            2687            2797     48.3660E-03     47.2401E-03
            2671            2797     48.3660E-03     47.2401E-03
            2674            2798     319.181E-03     334.556E-03
            2690            2798     319.181E-03     334.556E-03
            2673            2798     319.181E-03     334.556E-03
            2689            2798     319.181E-03     334.556E-03
            2674            2799     283.838E-03     301.620E-03
            2691            2799     283.838E-03     301.620E-03
            2675            2799     283.838E-03     301.620E-03
            2690            2799     283.838E-03     301.620E-03
            2676            2800     260.947E-03     279.007E-03
            2675            2800     260.947E-03     279.007E-03
            2692            2800     260.947E-03     279.007E-03
            2691            2800     260.947E-03     279.007E-03
            2693            2801     240.429E-03     258.275E-03
            2676            2801     240.429E-03     258.275E-03
            2692            2801     240.429E-03     258.275E-03
            2677            2801     240.429E-03     258.275E-03
            2677            2802     219.427E-03     237.198E-03
            2694            2802     219.427E-03     237.198E-03
            2678            2802     219.427E-03     237.198E-03
            2693            2802     219.427E-03     237.198E-03
            2694            2803     198.627E-03     216.515E-03
            2679            2803     198.627E-03     216.515E-03
            2678            2803     198.627E-03     216.515E-03
            2695            2803     198.627E-03     216.515E-03
            2695            2804     178.003E-03     195.738E-03
            2696            2804     178.003E-03     195.738E-03
            2679            2804     178.003E-03     195.738E-03
            2680            2804     178.003E-03     195.738E-03
            2696            2805     157.481E-03     175.231E-03
            2681            2805     157.481E-03     175.231E-03
            2697            2805     157.481E-03     175.231E-03
            2680            2805     157.481E-03     175.231E-03
            2681            2806     137.246E-03     154.791E-03
            2697            2806     137.246E-03     154.791E-03
            2682            2806     137.246E-03     154.791E-03
            2698            2806     137.246E-03     154.791E-03
            2682            2807     117.282E-03     134.671E-03
            2699            2807     117.282E-03     134.671E-03
            2698            2807     117.282E-03     134.671E-03
            2683            2807     117.282E-03     134.671E-03
            2683            2808     97.8933E-03     114.872E-03
            2700            2808     97.8933E-03     114.872E-03
            2684            2808     97.8933E-03     114.872E-03
            2699            2808     97.8933E-03     114.872E-03
            2685            2809     79.3984E-03     95.7494E-03
            2684            2809     79.3984E-03     95.7494E-03
            2701            2809     79.3984E-03     95.7494E-03
            2700            2809     79.3984E-03     95.7494E-03
            2686            2810     62.9135E-03     77.7492E-03
            2702            2810     62.9135E-03     77.7492E-03
            2685            2810     62.9135E-03     77.7492E-03
            2701            2810     62.9135E-03     77.7492E-03
            2703            2811     51.1953E-03     62.5683E-03
            2702            2811     51.1953E-03     62.5683E-03
            2686            2811     51.1953E-03     62.5683E-03
            2687            2811     51.1953E-03     62.5683E-03
            2704            2812     45.9945E-03     48.5941E-03
            2687            2812     45.9945E-03     48.5941E-03
            2688            2812     45.9945E-03     48.5941E-03
            2703            2812     45.9945E-03     48.5941E-03
            2705            2813     300.419E-03     291.401E-03
            2689            2813     300.419E-03     291.401E-03
            2690            2813     300.419E-03     291.401E-03
            2706            2813     300.419E-03     291.401E-03
            2690            2814     294.998E-03     288.533E-03
            2706            2814     294.998E-03     288.533E-03
            2691            2814     294.998E-03     288.533E-03
            2707            2814     294.998E-03     288.533E-03
            2691            2815     274.575E-03     268.180E-03
            2707            2815     274.575E-03     268.180E-03
            2708            2815     274.575E-03     268.180E-03
            2692            2815     274.575E-03     268.180E-03
            2708            2816     254.304E-03     247.644E-03
            2692            2816     254.304E-03     247.644E-03
            2693            2816     254.304E-03     247.644E-03
            2709            2816     254.304E-03     247.644E-03
            2710            2817     233.968E-03     227.525E-03
            2709            2817     233.968E-03     227.525E-03
            2693            2817     233.968E-03     227.525E-03
            2694            2817     233.968E-03     227.525E-03
            2695            2818     213.854E-03     207.359E-03
            2710            2818     213.854E-03     207.359E-03
            2694            2818     213.854E-03     207.359E-03
            2711            2818     213.854E-03     207.359E-03
            2711            2819     193.635E-03     187.312E-03
            2712            2819     193.635E-03     187.312E-03
            2696            2819     193.635E-03     187.312E-03
            2695            2819     193.635E-03     187.312E-03
            2696            2820     173.652E-03     167.354E-03
            2712            2820     173.652E-03     167.354E-03
            2713            2820     173.652E-03     167.354E-03
            2697            2820     173.652E-03     167.354E-03
            2697            2821     153.845E-03     147.748E-03
            2713            2821     153.845E-03     147.748E-03
            2698            2821     153.845E-03     147.748E-03
            2714            2821     153.845E-03     147.748E-03
            2698            2822     134.460E-03     128.545E-03
            2699            2822     134.460E-03     128.545E-03
            2715            2822     134.460E-03     128.545E-03
            2714            2822     134.460E-03     128.545E-03
            2715            2823     115.633E-03     110.101E-03
            2699            2823     115.633E-03     110.101E-03
            2700            2823     115.633E-03     110.101E-03
            2716            2823     115.633E-03     110.101E-03
            2700            2824     97.7438E-03     92.7075E-03
            2716            2824     97.7438E-03     92.7075E-03
            2717            2824     97.7438E-03     92.7075E-03
            2701            2824     97.7438E-03     92.7075E-03
            2717            2825     81.6273E-03     77.1533E-03
            2701            2825     81.6273E-03     77.1533E-03
            2702            2825     81.6273E-03     77.1533E-03
            2718            2825     81.6273E-03     77.1533E-03
            2718            2826     68.1238E-03     65.3069E-03
            2702            2826     68.1238E-03     65.3069E-03
            2719            2826     68.1238E-03     65.3069E-03
            2703            2826     68.1238E-03     65.3069E-03
            2720            2827     58.1412E-03     57.9772E-03
            2704            2827     58.1412E-03     57.9772E-03
            2703            2827     58.1412E-03     57.9772E-03
            2719            2827     58.1412E-03     57.9772E-03
            2916            2952     280.423E-06     301.297E-06
            2931            2952     280.423E-06     301.297E-06
            2932            2952     280.423E-06     301.297E-06
            2915            2952     280.423E-06     301.297E-06
            2917            2953     212.671E-06     237.260E-06
            2932            2953     212.671E-06     237.260E-06
            2933            2953     212.671E-06     237.260E-06
            2916            2953     212.671E-06     237.260E-06
            2918            2954     189.810E-06     214.300E-06
            2934            2954     189.810E-06     214.300E-06
            2933            2954     189.810E-06     214.300E-06
            2917            2954     189.810E-06     214.300E-06
            2919            2955     182.990E-06     206.636E-06
            2918            2955     182.990E-06     206.636E-06
            2934            2955     182.990E-06     206.636E-06
            2935            2955     182.990E-06     206.636E-06
            2936            2956     177.282E-06     199.929E-06
            2919            2956     177.282E-06     199.929E-06
            2920            2956     177.282E-06     199.929E-06
            2935            2956     177.282E-06     199.929E-06
            2920            2957     171.804E-06     193.846E-06
            2921            2957     171.804E-06     193.846E-06
            2937            2957     171.804E-06     193.846E-06
            2936            2957     171.804E-06     193.846E-06
            2937            2958     166.177E-06     187.508E-06
            2921            2958     166.177E-06     187.508E-06
            2922            2958     166.177E-06     187.508E-06
            2938            2958     166.177E-06     187.508E-06
            2938            2959     161.104E-06     181.516E-06
            2922            2959     161.104E-06     181.516E-06
            2923            2959     161.104E-06     181.516E-06
            2939            2959     161.104E-06     181.516E-06
            2924            2960     156.525E-06     175.789E-06
            2923            2960     156.525E-06     175.789E-06
            2939            2960     156.525E-06     175.789E-06
            2940            2960     156.525E-06     175.789E-06
            2925            2961     152.875E-06     170.529E-06
            2924            2961     152.875E-06     170.529E-06
            2940            2961     152.875E-06     170.529E-06
            2941            2961     152.875E-06     170.529E-06
            2941            2962     149.963E-06     165.800E-06
            2926            2962     149.963E-06     165.800E-06
            2942            2962     149.963E-06     165.800E-06
            2925            2962     149.963E-06     165.800E-06
            2926            2963     148.150E-06     161.453E-06
            2927            2963     148.150E-06     161.453E-06
            2942            2963     148.150E-06     161.453E-06
            2943            2963     148.150E-06     161.453E-06
            2927            2964     146.848E-06     157.333E-06
            2943            2964     146.848E-06     157.333E-06
            2928            2964     146.848E-06     157.333E-06
            2944            2964     146.848E-06     157.333E-06
            2944            2965     144.772E-06     156.160E-06
            2929            2965     144.772E-06     156.160E-06
            2945            2965     144.772E-06     156.160E-06
            2928            2965     144.772E-06     156.160E-06
            2945            2966     144.222E-06     155.929E-06
            2929            2966     144.222E-06     155.929E-06
            2946            2966     144.222E-06     155.929E-06
            2930            2966     144.222E-06     155.929E-06
            2932            2967     235.075E-06     239.089E-06
            2948            2967     235.075E-06     239.089E-06
            2931            2967     235.075E-06     239.089E-06
            2947            2967     235.075E-06     239.089E-06
            2949            2968     213.201E-06     225.068E-06
            2948            2968     213.201E-06     225.068E-06
            2932            2968     213.201E-06     225.068E-06
            2933            2968     213.201E-06     225.068E-06
            2933            2969     201.605E-06     216.703E-06
            2949            2969     201.605E-06     216.703E-06
            2950            2969     201.605E-06     216.703E-06
            2934            2969     201.605E-06     216.703E-06
            2935            2970     195.841E-06     210.514E-06
            2934            2970     195.841E-06     210.514E-06
            2950            2970     195.841E-06     210.514E-06
            2951            2970     195.841E-06     210.514E-06
            2935            2971     189.112E-06     202.717E-06
            2951            2971     189.112E-06     202.717E-06
            2936            2971     189.112E-06     202.717E-06
            2952            2971     189.112E-06     202.717E-06
            2936            2972     181.555E-06     195.153E-06
            2953            2972     181.555E-06     195.153E-06
            2937            2972     181.555E-06     195.153E-06
            2952            2972     181.555E-06     195.153E-06
            2937            2973     175.244E-06     188.270E-06
            2953            2973     175.244E-06     188.270E-06
            2954            2973     175.244E-06     188.270E-06
            2938            2973     175.244E-06     188.270E-06
            2938            2974     169.437E-06     182.067E-06
            2954            2974     169.437E-06     182.067E-06
            2939            2974     169.437E-06     182.067E-06
            2955            2974     169.437E-06     182.067E-06
            2939            2975     164.659E-06     176.654E-06
            2940            2975     164.659E-06     176.654E-06
            2956            2975     164.659E-06     176.654E-06
            2955            2975     164.659E-06     176.654E-06
            2941            2976     160.672E-06     171.802E-06
            2956            2976     160.672E-06     171.802E-06
            2957            2976     160.672E-06     171.802E-06
            2940            2976     160.672E-06     171.802E-06
            2942            2977     157.452E-06     167.777E-06
            2941            2977     157.452E-06     167.777E-06
            2958            2977     157.452E-06     167.777E-06
            2957            2977     157.452E-06     167.777E-06
            2942            2978     155.269E-06     164.282E-06
            2959            2978     155.269E-06     164.282E-06
            2943            2978     155.269E-06     164.282E-06
            2958            2978     155.269E-06     164.282E-06
            2959            2979     154.149E-06     161.366E-06
            2943            2979     154.149E-06     161.366E-06
            2960            2979     154.149E-06     161.366E-06
            2944            2979     154.149E-06     161.366E-06
            2961            2980     154.745E-06     158.027E-06
            2945            2980     154.745E-06     158.027E-06
            2960            2980     154.745E-06     158.027E-06
            2944            2980     154.745E-06     158.027E-06
            2961            2981     160.133E-06     152.069E-06
            2945            2981     160.133E-06     152.069E-06
            2962            2981     160.133E-06     152.069E-06
            2946            2981     160.133E-06     152.069E-06
            2948            2982     167.589E-06     174.439E-06
            2963            2982     167.589E-06     174.439E-06
            2947            2982     167.589E-06     174.439E-06
            2964            2982     167.589E-06     174.439E-06
            2949            2983     187.361E-06     197.818E-06
            2964            2983     187.361E-06     197.818E-06
            2965            2983     187.361E-06     197.818E-06
            2948            2983     187.361E-06     197.818E-06
            2949            2984     207.126E-06     213.238E-06
            2965            2984     207.126E-06     213.238E-06
            2966            2984     207.126E-06     213.238E-06
            2950            2984     207.126E-06     213.238E-06
            2951            2985     205.318E-06     209.528E-06
            2966            2985     205.318E-06     209.528E-06
            2967            2985     205.318E-06     209.528E-06
            2950            2985     205.318E-06     209.528E-06
            2967            2986     197.773E-06     202.505E-06
            2968            2986     197.773E-06     202.505E-06
            2951            2986     197.773E-06     202.505E-06
            2952            2986     197.773E-06     202.505E-06
            2953            2987     190.460E-06     194.715E-06
            2969            2987     190.460E-06     194.715E-06
            2968            2987     190.460E-06     194.715E-06
            2952            2987     190.460E-06     194.715E-06
            2969            2988     183.449E-06     187.921E-06
            2970            2988     183.449E-06     187.921E-06
            2953            2988     183.449E-06     187.921E-06
            2954            2988     183.449E-06     187.921E-06
            2954            2989     177.805E-06     182.147E-06
            2970            2989     177.805E-06     182.147E-06
            2955            2989     177.805E-06     182.147E-06
            2971            2989     177.805E-06     182.147E-06
            2955            2990     172.939E-06     177.196E-06
            2956            2990     172.939E-06     177.196E-06
            2972            2990     172.939E-06     177.196E-06
            2971            2990     172.939E-06     177.196E-06
            2972            2991     168.850E-06     173.183E-06
            2973            2991     168.850E-06     173.183E-06
            2956            2991     168.850E-06     173.183E-06
            2957            2991     168.850E-06     173.183E-06
            2974            2992     165.610E-06     169.709E-06
            2957            2992     165.610E-06     169.709E-06
            2958            2992     165.610E-06     169.709E-06
            2973            2992     165.610E-06     169.709E-06
            2974            2993     162.804E-06     167.304E-06
            2958            2993     162.804E-06     167.304E-06
            2975            2993     162.804E-06     167.304E-06
            2959            2993     162.804E-06     167.304E-06
            2959            2994     161.548E-06     165.673E-06
            2976            2994     161.548E-06     165.673E-06
            2960            2994     161.548E-06     165.673E-06
            2975            2994     161.548E-06     165.673E-06
            2960            2995     165.238E-06     160.188E-06
            2976            2995     165.238E-06     160.188E-06
            2977            2995     165.238E-06     160.188E-06
            2961            2995     165.238E-06     160.188E-06
            2977            2996     169.107E-06     151.604E-06
            2961            2996     169.107E-06     151.604E-06
            2962            2996     169.107E-06     151.604E-06
            2978            2996     169.107E-06     151.604E-06
            2980            2997     113.563E-06     114.121E-06
            2964            2997     113.563E-06     114.121E-06
            2979            2997     113.563E-06     114.121E-06
            2963            2997     113.563E-06     114.121E-06
            2981            2998     166.935E-06     167.823E-06
            2980            2998     166.935E-06     167.823E-06
            2964            2998     166.935E-06     167.823E-06
            2965            2998     166.935E-06     167.823E-06
            2981            2999     201.703E-06     196.261E-06
            2966            2999     201.703E-06     196.261E-06
            2965            2999     201.703E-06     196.261E-06
            2982            2999     201.703E-06     196.261E-06
            2967            3000     206.126E-06     200.093E-06
            2982            3000     206.126E-06     200.093E-06
            2983            3000     206.126E-06     200.093E-06
            2966            3000     206.126E-06     200.093E-06
            2983            3001     202.238E-06     196.465E-06
            2984            3001     202.238E-06     196.465E-06
            2967            3001     202.238E-06     196.465E-06
            2968            3001     202.238E-06     196.465E-06
            2969            3002     196.467E-06     191.239E-06
            2968            3002     196.467E-06     191.239E-06
            2984            3002     196.467E-06     191.239E-06
            2985            3002     196.467E-06     191.239E-06
            2985            3003     190.938E-06     186.120E-06
            2969            3003     190.938E-06     186.120E-06
            2986            3003     190.938E-06     186.120E-06
            2970            3003     190.938E-06     186.120E-06
            2970            3004     185.912E-06     181.595E-06
            2987            3004     185.912E-06     181.595E-06
            2986            3004     185.912E-06     181.595E-06
            2971            3004     185.912E-06     181.595E-06
            2987            3005     181.504E-06     177.805E-06
            2971            3005     181.504E-06     177.805E-06
            2972            3005     181.504E-06     177.805E-06
            2988            3005     181.504E-06     177.805E-06
            2988            3006     177.652E-06     174.522E-06
            2973            3006     177.652E-06     174.522E-06
            2972            3006     177.652E-06     174.522E-06
            2989            3006     177.652E-06     174.522E-06
            2990            3007     174.199E-06     172.050E-06
            2989            3007     174.199E-06     172.050E-06
            2974            3007     174.199E-06     172.050E-06
            2973            3007     174.199E-06     172.050E-06
            2974            3008     171.403E-06     170.118E-06
            2990            3008     171.403E-06     170.118E-06
            2975            3008     171.403E-06     170.118E-06
            2991            3008     171.403E-06     170.118E-06
            2976            3009     169.030E-06     169.044E-06
            2992            3009     169.030E-06     169.044E-06
            2975            3009     169.030E-06     169.044E-06
            2991            3009     169.030E-06     169.044E-06
            2976            3010     167.775E-06     168.909E-06
            2993            3010     167.775E-06     168.909E-06
            2992            3010     167.775E-06     168.909E-06
            2977            3010     167.775E-06     168.909E-06
            2993            3011     172.218E-06     165.277E-06
            2977            3011     172.218E-06     165.277E-06
            2994            3011     172.218E-06     165.277E-06
            2978            3011     172.218E-06     165.277E-06
            2980            3012     87.9607E-06     94.1629E-06
            2995            3012     87.9607E-06     94.1629E-06
            2979            3012     87.9607E-06     94.1629E-06
            2996            3012     87.9607E-06     94.1629E-06
            2997            3013     154.161E-06     134.267E-06
            2996            3013     154.161E-06     134.267E-06
            2980            3013     154.161E-06     134.267E-06
            2981            3013     154.161E-06     134.267E-06
            2982            3014     186.810E-06     168.364E-06
            2981            3014     186.810E-06     168.364E-06
            2998            3014     186.810E-06     168.364E-06
            2997            3014     186.810E-06     168.364E-06
            2983            3015     199.895E-06     182.870E-06
            2982            3015     199.895E-06     182.870E-06
            2998            3015     199.895E-06     182.870E-06
            2999            3015     199.895E-06     182.870E-06
            2984            3016     202.831E-06     186.367E-06
            2983            3016     202.831E-06     186.367E-06
            3000            3016     202.831E-06     186.367E-06
            2999            3016     202.831E-06     186.367E-06
            2985            3017     201.045E-06     185.877E-06
            2984            3017     201.045E-06     185.877E-06
            3000            3017     201.045E-06     185.877E-06
            3001            3017     201.045E-06     185.877E-06
            3002            3018     197.997E-06     183.661E-06
            3001            3018     197.997E-06     183.661E-06
            2985            3018     197.997E-06     183.661E-06
            2986            3018     197.997E-06     183.661E-06
            2986            3019     194.294E-06     181.119E-06
            2987            3019     194.294E-06     181.119E-06
            3003            3019     194.294E-06     181.119E-06
            3002            3019     194.294E-06     181.119E-06
            3004            3020     190.575E-06     178.616E-06
            2987            3020     190.575E-06     178.616E-06
            3003            3020     190.575E-06     178.616E-06
            2988            3020     190.575E-06     178.616E-06
            3004            3021     187.019E-06     176.382E-06
            2988            3021     187.019E-06     176.382E-06
            2989            3021     187.019E-06     176.382E-06
            3005            3021     187.019E-06     176.382E-06
            2990            3022     183.582E-06     174.641E-06
            3006            3022     183.582E-06     174.641E-06
            2989            3022     183.582E-06     174.641E-06
            3005            3022     183.582E-06     174.641E-06
            2991            3023     180.581E-06     173.287E-06
            2990            3023     180.581E-06     173.287E-06
            3006            3023     180.581E-06     173.287E-06
            3007            3023     180.581E-06     173.287E-06
            2992            3024     177.257E-06     172.538E-06
            2991            3024     177.257E-06     172.538E-06
            3007            3024     177.257E-06     172.538E-06
            3008            3024     177.257E-06     172.538E-06
            3009            3025     172.485E-06     175.259E-06
            3008            3025     172.485E-06     175.259E-06
            2993            3025     172.485E-06     175.259E-06
            2992            3025     172.485E-06     175.259E-06
            3010            3026     168.557E-06     180.470E-06
            2994            3026     168.557E-06     180.470E-06
            2993            3026     168.557E-06     180.470E-06
            3009            3026     168.557E-06     180.470E-06


  Minimum                            44.7854E-06     76.6045E-06
      At Element                            2995            2995
            Node                             596             596

  Maximum                            425.111E-03     438.456E-03
      At Element                            1737            2641
            Node                             389              20

           Total                         402.401         414.800


********************************************************************************
Field Output Report, written Fri Feb 15 18:34:06 2019

Source 1
---------

   ODB: C:/Scratch/CRJ700-19.odb
   Step: Jam2
   Frame: Increment      1: Step Time =    1.000

Loc 1 : Element nodal  values at shell < ALUMINIUM > < 5 section points > from source 1 : SNEG, (fraction = -1.0) ( Average criteria = 75%, Not averaged across region boundaries )
Loc 2 : Element nodal  values at shell < ALUMINIUM > < 5 section points > from source 1 : SPOS, (fraction = 1.0) ( Average criteria = 75%, Not averaged across region boundaries )

Output sorted by column "Node Label".

Field Output reported at element nodes for region: CRJ700-1.Region_1
   Computation algorithm: EXTRAPOLATE_COMPUTE_AVERAGE
   Averaged at nodes
   Averaging regions: ODB_REGIONS

   Element Label      Node Label         S.Mises         S.Mises
                                          @Loc 1          @Loc 2
-----------------------------------------------------------------
             645               2     7.39041E-03     7.53910E-03
            1858               2     7.39041E-03     7.53910E-03
            2023               3     366.426E-03     396.150E-03
            1648               3     366.426E-03     396.150E-03
            1618               5     10.1246E-03     10.2714E-03
             675               5     10.1246E-03     10.2714E-03
            1643               6     91.3708E-06     149.002E-06
             641               8     24.8449E-03     24.9322E-03
            1622               8     24.8449E-03     24.9322E-03
             671               8     24.8449E-03     24.9322E-03
            1862               8     24.8449E-03     24.9322E-03
             670               9     91.3708E-06     149.002E-06
            1647              10     338.114E-06     333.028E-06
             666              10     338.114E-06     333.028E-06
            2725              11     352.032E-03     381.216E-03
             840              11     352.032E-03     381.216E-03
             836              12     76.4602E-03     76.3444E-03
            2721              12     76.4602E-03     76.3444E-03
            1652              12     76.4602E-03     76.3444E-03
            2027              12     76.4602E-03     76.3444E-03
            1668              16     406.238E-03     448.447E-03
            2145              16     406.238E-03     448.447E-03
            1672              19     118.806E-03     120.050E-03
            1833              19     118.806E-03     120.050E-03
            2149              19     118.806E-03     120.050E-03
            2741              19     118.806E-03     120.050E-03
            1837              20     424.929E-03     465.401E-03
            2745              20     424.929E-03     465.401E-03
            2764              21     261.723E-03     295.086E-03
            2165              21     261.723E-03     295.086E-03
            1857              23     266.581E-03     300.995E-03
            2174              23     266.581E-03     300.995E-03
            1853              24     193.094E-03     194.909E-03
            2170              24     193.094E-03     194.909E-03
            2169              24     193.094E-03     194.909E-03
            2768              24     193.094E-03     194.909E-03
            3191              26     19.7549E-03     20.0540E-03
            2224              26     19.7549E-03     20.0540E-03
            2220              27     61.9738E-03     62.1993E-03
            2856              27     61.9738E-03     62.1993E-03
            3187              27     61.9738E-03     62.1993E-03
            2818              27     61.9738E-03     62.1993E-03
            2852              28     23.2444E-03     23.5412E-03
            2814              28     23.2444E-03     23.5412E-03
            2877              31     91.1525E-06     149.068E-06
            3216              34     91.1525E-06     149.068E-06
            3212              35     337.969E-06     332.957E-06
            2881              35     337.969E-06     332.957E-06
            1863              51     12.8869E-03     16.8975E-03
            1858              51     12.8869E-03     16.8975E-03
            1863              52     8.44001E-03     15.6282E-03
            1868              52     8.44001E-03     15.6282E-03
            1873              53     17.9899E-03     20.4906E-03
            1868              53     17.9899E-03     20.4906E-03
            1873              54     40.9407E-03     37.4312E-03
            1878              54     40.9407E-03     37.4312E-03
            1883              55     55.9716E-03     60.9166E-03
            1878              55     55.9716E-03     60.9166E-03
            1888              56     82.3886E-03     78.4755E-03
            1883              56     82.3886E-03     78.4755E-03
            1893              57     103.337E-03     102.544E-03
            1888              57     103.337E-03     102.544E-03
            1898              58     86.2369E-03     95.6578E-03
            1893              58     86.2369E-03     95.6578E-03
            1898              59     79.4607E-03     76.1560E-03
            1903              59     79.4607E-03     76.1560E-03
            1908              60     99.4296E-03     94.2434E-03
            1903              60     99.4296E-03     94.2434E-03
            1913              61     113.739E-03     120.945E-03
            1908              61     113.739E-03     120.945E-03
            1918              62     145.142E-03     138.320E-03
            1913              62     145.142E-03     138.320E-03
            1918              63     168.312E-03     165.407E-03
            1923              63     168.312E-03     165.407E-03
            1928              64     148.459E-03     165.310E-03
            1923              64     148.459E-03     165.310E-03
            1928              65     147.295E-03     139.591E-03
            1933              65     147.295E-03     139.591E-03
            1938              66     161.518E-03     159.419E-03
            1933              66     161.518E-03     159.419E-03
            1943              67     179.140E-03     177.570E-03
            1938              67     179.140E-03     177.570E-03
            1948              68     194.553E-03     201.860E-03
            1943              68     194.553E-03     201.860E-03
            1953              69     227.748E-03     219.811E-03
            1948              69     227.748E-03     219.811E-03
            1953              70     253.072E-03     247.133E-03
            1958              70     253.072E-03     247.133E-03
            1958              71     225.808E-03     251.510E-03
            1963              71     225.808E-03     251.510E-03
            1963              72     227.966E-03     217.442E-03
            1968              72     227.966E-03     217.442E-03
            1968              73     240.245E-03     236.048E-03
            1973              73     240.245E-03     236.048E-03
            1978              74     254.873E-03     254.436E-03
            1973              74     254.873E-03     254.436E-03
            1978              75     270.444E-03     278.980E-03
            1983              75     270.444E-03     278.980E-03
            1988              76     307.154E-03     297.082E-03
            1983              76     307.154E-03     297.082E-03
            1993              77     334.881E-03     326.147E-03
            1988              77     334.881E-03     326.147E-03
            1993              78     302.137E-03     335.882E-03
            1998              78     302.137E-03     335.882E-03
            2003              79     307.249E-03     297.670E-03
            1998              79     307.249E-03     297.670E-03
            2008              80     324.999E-03     308.276E-03
            2003              80     324.999E-03     308.276E-03
            2008              81     323.882E-03     344.478E-03
            2013              81     323.882E-03     344.478E-03
            2013              82     372.146E-03     353.839E-03
            2018              82     372.146E-03     353.839E-03
            2018              83     399.015E-03     389.930E-03
            2023              83     399.015E-03     389.930E-03
            1623             147     402.481E-06     400.664E-06
            1618             147     402.481E-06     400.664E-06
            1623             148     293.767E-06     283.980E-06
            1628             148     293.767E-06     283.980E-06
            1633             149     173.079E-06     188.838E-06
            1628             149     173.079E-06     188.838E-06
            1633             150     113.470E-06     97.7066E-06
            1638             150     113.470E-06     97.7066E-06
            1643             151     80.5978E-06     116.277E-06
            1638             151     80.5978E-06     116.277E-06
            1861             172     23.4487E-03     23.5405E-03
             641             172     23.4487E-03     23.5405E-03
             642             172     23.4487E-03     23.5405E-03
            1862             172     23.4487E-03     23.5405E-03
             643             173     20.2903E-03     20.3993E-03
            1860             173     20.2903E-03     20.3993E-03
            1861             173     20.2903E-03     20.3993E-03
             642             173     20.2903E-03     20.3993E-03
             643             174     15.7015E-03     15.8399E-03
             644             174     15.7015E-03     15.8399E-03
            1859             174     15.7015E-03     15.8399E-03
            1860             174     15.7015E-03     15.8399E-03
             645             175     10.2468E-03     10.3989E-03
            1859             175     10.2468E-03     10.3989E-03
            1858             175     10.2468E-03     10.3989E-03
             644             175     10.2468E-03     10.3989E-03
             645             176     402.481E-06     400.664E-06
             650             176     402.481E-06     400.664E-06
             655             177     293.767E-06     283.980E-06
             650             177     293.767E-06     283.980E-06
             660             178     173.079E-06     188.838E-06
             655             178     173.079E-06     188.838E-06
             665             179     113.470E-06     97.7066E-06
             660             179     113.470E-06     97.7066E-06
             670             180     80.5978E-06     116.277E-06
             665             180     80.5978E-06     116.277E-06
             670             181     104.284E-06     136.057E-06
             669             181     104.284E-06     136.057E-06
             669             182     160.881E-06     166.462E-06
             668             182     160.881E-06     166.462E-06
             667             183     251.725E-06     251.224E-06
             668             183     251.725E-06     251.224E-06
             666             184     318.500E-06     312.832E-06
             667             184     318.500E-06     312.832E-06
            1647             185     342.665E-06     336.235E-06
             666             185     342.665E-06     336.235E-06
             661             185     342.665E-06     336.235E-06
            1642             185     342.665E-06     336.235E-06
            1642             186     345.324E-06     338.561E-06
             656             186     345.324E-06     338.561E-06
            1637             186     345.324E-06     338.561E-06
             661             186     345.324E-06     338.561E-06
             651             187     341.559E-06     340.133E-06
            1632             187     341.559E-06     340.133E-06
            1637             187     341.559E-06     340.133E-06
             656             187     341.559E-06     340.133E-06
             651             188     345.086E-06     342.682E-06
            1632             188     345.086E-06     342.682E-06
            1627             188     345.086E-06     342.682E-06
             646             188     345.086E-06     342.682E-06
             646             189     343.667E-06     335.388E-06
            1622             189     343.667E-06     335.388E-06
            1627             189     343.667E-06     335.388E-06
             641             189     343.667E-06     335.388E-06
             672             190     24.3396E-03     24.4313E-03
            1622             190     24.3396E-03     24.4313E-03
            1621             190     24.3396E-03     24.4313E-03
             671             190     24.3396E-03     24.4313E-03
            1621             191     21.9804E-03     22.0890E-03
             673             191     21.9804E-03     22.0890E-03
            1620             191     21.9804E-03     22.0890E-03
             672             191     21.9804E-03     22.0890E-03
             673             192     18.0112E-03     18.1488E-03
             674             192     18.0112E-03     18.1488E-03
            1619             192     18.0112E-03     18.1488E-03
            1620             192     18.0112E-03     18.1488E-03
            1619             193     12.8959E-03     13.0464E-03
             675             193     12.8959E-03     13.0464E-03
            1618             193     12.8959E-03     13.0464E-03
             674             193     12.8959E-03     13.0464E-03
             675             194     19.0200E-03     21.9763E-03
             680             194     19.0200E-03     21.9763E-03
             685             195     13.7123E-03     18.1572E-03
             680             195     13.7123E-03     18.1572E-03
             685             196     19.1378E-03     19.3574E-03
             690             196     19.1378E-03     19.3574E-03
             690             197     38.6393E-03     34.9105E-03
             695             197     38.6393E-03     34.9105E-03
             695             198     53.1642E-03     58.0735E-03
             700             198     53.1642E-03     58.0735E-03
             700             199     79.0049E-03     75.0625E-03
             705             199     79.0049E-03     75.0625E-03
             710             200     99.0849E-03     98.7516E-03
             705             200     99.0849E-03     98.7516E-03
             710             201     83.9559E-03     92.9925E-03
             715             201     83.9559E-03     92.9925E-03
             720             202     77.5996E-03     73.7615E-03
             715             202     77.5996E-03     73.7615E-03
             725             203     95.1610E-03     89.9884E-03
             720             203     95.1610E-03     89.9884E-03
             725             204     108.670E-03     115.526E-03
             730             204     108.670E-03     115.526E-03
             735             205     138.876E-03     132.270E-03
             730             205     138.876E-03     132.270E-03
             735             206     160.877E-03     158.594E-03
             740             206     160.877E-03     158.594E-03
             745             207     143.147E-03     159.197E-03
             740             207     143.147E-03     159.197E-03
             745             208     142.420E-03     134.356E-03
             750             208     142.420E-03     134.356E-03
             755             209     154.770E-03     152.551E-03
             750             209     154.770E-03     152.551E-03
             760             210     171.269E-03     169.665E-03
             755             210     171.269E-03     169.665E-03
             765             211     186.174E-03     193.318E-03
             760             211     186.174E-03     193.318E-03
             765             212     218.164E-03     210.556E-03
             770             212     218.164E-03     210.556E-03
             770             213     242.296E-03     237.144E-03
             775             213     242.296E-03     237.144E-03
             775             214     217.247E-03     241.760E-03
             780             214     217.247E-03     241.760E-03
             785             215     219.618E-03     208.859E-03
             780             215     219.618E-03     208.859E-03
             790             216     230.175E-03     226.000E-03
             785             216     230.175E-03     226.000E-03
             795             217     243.847E-03     243.346E-03
             790             217     243.847E-03     243.346E-03
             795             218     258.910E-03     267.244E-03
             800             218     258.910E-03     267.244E-03
             805             219     294.267E-03     284.642E-03
             800             219     294.267E-03     284.642E-03
             805             220     320.744E-03     312.926E-03
             810             220     320.744E-03     312.926E-03
             810             221     290.326E-03     322.578E-03
             815             221     290.326E-03     322.578E-03
             820             222     295.469E-03     285.642E-03
             815             222     295.469E-03     285.642E-03
             825             223     311.294E-03     295.266E-03
             820             223     311.294E-03     295.266E-03
             825             224     310.122E-03     329.865E-03
             830             224     310.122E-03     329.865E-03
             835             225     356.466E-03     338.959E-03
             830             225     356.466E-03     338.959E-03
             840             226     382.010E-03     373.887E-03
             835             226     382.010E-03     373.887E-03
             839             227     322.529E-03     359.917E-03
             840             227     322.529E-03     359.917E-03
            2724             227     322.529E-03     359.917E-03
            2725             227     322.529E-03     359.917E-03
            2723             228     263.226E-03     300.063E-03
            2724             228     263.226E-03     300.063E-03
             838             228     263.226E-03     300.063E-03
             839             228     263.226E-03     300.063E-03
             838             229     192.381E-03     211.385E-03
            2723             229     192.381E-03     211.385E-03
             837             229     192.381E-03     211.385E-03
            2722             229     192.381E-03     211.385E-03
            2721             230     109.954E-03     114.168E-03
            2722             230     109.954E-03     114.168E-03
             837             230     109.954E-03     114.168E-03
             836             230     109.954E-03     114.168E-03
             836             231     98.5025E-03     94.8572E-03
            2027             231     98.5025E-03     94.8572E-03
             831             231     98.5025E-03     94.8572E-03
            2022             231     98.5025E-03     94.8572E-03
            2022             232     99.8161E-03     102.476E-03
             826             232     99.8161E-03     102.476E-03
             831             232     99.8161E-03     102.476E-03
            2017             232     99.8161E-03     102.476E-03
             821             233     97.9495E-03     102.239E-03
            2017             233     97.9495E-03     102.239E-03
             826             233     97.9495E-03     102.239E-03
            2012             233     97.9495E-03     102.239E-03
            2007             234     100.768E-03     95.8418E-03
             816             234     100.768E-03     95.8418E-03
             821             234     100.768E-03     95.8418E-03
            2012             234     100.768E-03     95.8418E-03
             811             235     97.4508E-03     96.9182E-03
            2007             235     97.4508E-03     96.9182E-03
             816             235     97.4508E-03     96.9182E-03
            2002             235     97.4508E-03     96.9182E-03
            1997             236     91.3089E-03     93.3871E-03
             806             236     91.3089E-03     93.3871E-03
             811             236     91.3089E-03     93.3871E-03
            2002             236     91.3089E-03     93.3871E-03
             801             237     93.1144E-03     90.3968E-03
            1992             237     93.1144E-03     90.3968E-03
             806             237     93.1144E-03     90.3968E-03
            1997             237     93.1144E-03     90.3968E-03
            1987             238     94.0399E-03     96.9423E-03
             801             238     94.0399E-03     96.9423E-03
             796             238     94.0399E-03     96.9423E-03
            1992             238     94.0399E-03     96.9423E-03
            1982             239     91.8685E-03     95.8409E-03
             791             239     91.8685E-03     95.8409E-03
            1987             239     91.8685E-03     95.8409E-03
             796             239     91.8685E-03     95.8409E-03
            1977             240     94.6513E-03     92.2889E-03
             786             240     94.6513E-03     92.2889E-03
            1982             240     94.6513E-03     92.2889E-03
             791             240     94.6513E-03     92.2889E-03
            1977             241     93.3109E-03     89.1871E-03
             781             241     93.3109E-03     89.1871E-03
             786             241     93.3109E-03     89.1871E-03
            1972             241     93.3109E-03     89.1871E-03
             776             242     90.7454E-03     89.5385E-03
             781             242     90.7454E-03     89.5385E-03
            1972             242     90.7454E-03     89.5385E-03
            1967             242     90.7454E-03     89.5385E-03
            1967             243     87.0174E-03     87.3278E-03
             776             243     87.0174E-03     87.3278E-03
             771             243     87.0174E-03     87.3278E-03
            1962             243     87.0174E-03     87.3278E-03
             771             244     87.5580E-03     85.3146E-03
            1962             244     87.5580E-03     85.3146E-03
            1957             244     87.5580E-03     85.3146E-03
             766             244     87.5580E-03     85.3146E-03
            1957             245     87.9374E-03     90.1650E-03
            1952             245     87.9374E-03     90.1650E-03
             761             245     87.9374E-03     90.1650E-03
             766             245     87.9374E-03     90.1650E-03
             756             246     86.1963E-03     88.8187E-03
            1947             246     86.1963E-03     88.8187E-03
             761             246     86.1963E-03     88.8187E-03
            1952             246     86.1963E-03     88.8187E-03
            1942             247     88.2821E-03     86.1100E-03
             756             247     88.2821E-03     86.1100E-03
             751             247     88.2821E-03     86.1100E-03
            1947             247     88.2821E-03     86.1100E-03
             751             248     87.3537E-03     84.3249E-03
            1942             248     87.3537E-03     84.3249E-03
            1937             248     87.3537E-03     84.3249E-03
             746             248     87.3537E-03     84.3249E-03
            1932             249     85.7248E-03     84.6611E-03
             746             249     85.7248E-03     84.6611E-03
            1937             249     85.7248E-03     84.6611E-03
             741             249     85.7248E-03     84.6611E-03
             741             250     82.9119E-03     82.4917E-03
            1932             250     82.9119E-03     82.4917E-03
             736             250     82.9119E-03     82.4917E-03
            1927             250     82.9119E-03     82.4917E-03
            1927             251     82.6936E-03     80.7438E-03
             736             251     82.6936E-03     80.7438E-03
            1922             251     82.6936E-03     80.7438E-03
             731             251     82.6936E-03     80.7438E-03
            1917             252     82.9248E-03     83.8185E-03
            1922             252     82.9248E-03     83.8185E-03
             731             252     82.9248E-03     83.8185E-03
             726             252     82.9248E-03     83.8185E-03
             726             253     82.1362E-03     82.7802E-03
            1912             253     82.1362E-03     82.7802E-03
             721             253     82.1362E-03     82.7802E-03
            1917             253     82.1362E-03     82.7802E-03
             721             254     83.2519E-03     81.0656E-03
            1907             254     83.2519E-03     81.0656E-03
            1912             254     83.2519E-03     81.0656E-03
             716             254     83.2519E-03     81.0656E-03
            1907             255     82.1792E-03     81.5530E-03
            1902             255     82.1792E-03     81.5530E-03
             711             255     82.1792E-03     81.5530E-03
             716             255     82.1792E-03     81.5530E-03
            1902             256     80.3745E-03     79.8332E-03
             706             256     80.3745E-03     79.8332E-03
             711             256     80.3745E-03     79.8332E-03
            1897             256     80.3745E-03     79.8332E-03
             706             257     80.7678E-03     79.3028E-03
            1892             257     80.7678E-03     79.3028E-03
            1897             257     80.7678E-03     79.3028E-03
             701             257     80.7678E-03     79.3028E-03
             701             258     80.7978E-03     81.3364E-03
            1887             258     80.7978E-03     81.3364E-03
             696             258     80.7978E-03     81.3364E-03
            1892             258     80.7978E-03     81.3364E-03
            1882             259     80.0321E-03     80.2818E-03
            1887             259     80.0321E-03     80.2818E-03
             696             259     80.0321E-03     80.2818E-03
             691             259     80.0321E-03     80.2818E-03
            1877             260     80.5994E-03     79.5288E-03
            1882             260     80.5994E-03     79.5288E-03
             686             260     80.5994E-03     79.5288E-03
             691             260     80.5994E-03     79.5288E-03
             686             261     80.6262E-03     79.7387E-03
            1872             261     80.6262E-03     79.7387E-03
             681             261     80.6262E-03     79.7387E-03
            1877             261     80.6262E-03     79.7387E-03
             676             262     80.2501E-03     79.1226E-03
            1872             262     80.2501E-03     79.1226E-03
             681             262     80.2501E-03     79.1226E-03
            1867             262     80.2501E-03     79.1226E-03
             676             263     64.5863E-03     64.1940E-03
             671             263     64.5863E-03     64.1940E-03
            1867             263     64.5863E-03     64.1940E-03
            1862             263     64.5863E-03     64.1940E-03
            1648             314     351.863E-03     364.658E-03
            1653             314     351.863E-03     364.658E-03
            1653             315     373.624E-03     374.848E-03
            1658             315     373.624E-03     374.848E-03
            1663             316     416.761E-03     385.123E-03
            1658             316     416.761E-03     385.123E-03
            1663             317     428.034E-03     428.401E-03
            1668             317     428.034E-03     428.401E-03
            1646             358     318.500E-06     312.832E-06
            1647             358     318.500E-06     312.832E-06
            1646             359     251.725E-06     251.224E-06
            1645             359     251.725E-06     251.224E-06
            1644             360     160.881E-06     166.462E-06
            1645             360     160.881E-06     166.462E-06
            1643             361     104.284E-06     136.057E-06
            1644             361     104.284E-06     136.057E-06
            2023             362     337.898E-03     376.432E-03
            1649             362     337.898E-03     376.432E-03
            2024             362     337.898E-03     376.432E-03
            1648             362     337.898E-03     376.432E-03
            1650             363     280.485E-03     319.581E-03
            2025             363     280.485E-03     319.581E-03
            1649             363     280.485E-03     319.581E-03
            2024             363     280.485E-03     319.581E-03
            2026             364     211.085E-03     232.950E-03
            1650             364     211.085E-03     232.950E-03
            1651             364     211.085E-03     232.950E-03
            2025             364     211.085E-03     232.950E-03
            2027             365     127.460E-03     134.533E-03
            1651             365     127.460E-03     134.533E-03
            1652             365     127.460E-03     134.533E-03
            2026             365     127.460E-03     134.533E-03
            2726             366     66.7404E-03     70.2971E-03
            1652             366     66.7404E-03     70.2971E-03
            1657             366     66.7404E-03     70.2971E-03
            2721             366     66.7404E-03     70.2971E-03
            2731             367     73.1115E-03     77.7082E-03
            1662             367     73.1115E-03     77.7082E-03
            2726             367     73.1115E-03     77.7082E-03
            1657             367     73.1115E-03     77.7082E-03
            1667             368     79.8647E-03     76.9121E-03
            1662             368     79.8647E-03     76.9121E-03
            2736             368     79.8647E-03     76.9121E-03
            2731             368     79.8647E-03     76.9121E-03
            2741             369     77.8641E-03     75.5030E-03
            1672             369     77.8641E-03     75.5030E-03
            2736             369     77.8641E-03     75.5030E-03
            1667             369     77.8641E-03     75.5030E-03
            2148             370     155.555E-03     160.104E-03
            1672             370     155.555E-03     160.104E-03
            1671             370     155.555E-03     160.104E-03
            2149             370     155.555E-03     160.104E-03
            2147             371     234.265E-03     255.974E-03
            1671             371     234.265E-03     255.974E-03
            2148             371     234.265E-03     255.974E-03
            1670             371     234.265E-03     255.974E-03
            1670             372     303.218E-03     344.606E-03
            2146             372     303.218E-03     344.606E-03
            2147             372     303.218E-03     344.606E-03
            1669             372     303.218E-03     344.606E-03
            2145             373     369.110E-03     416.186E-03
            1668             373     369.110E-03     416.186E-03
            1669             373     369.110E-03     416.186E-03
            2146             373     369.110E-03     416.186E-03
            2740             389     454.827E-03     449.833E-03
            2745             389     454.827E-03     449.833E-03
            2735             390     424.504E-03     395.080E-03
            2740             390     424.504E-03     395.080E-03
            2735             391     361.493E-03     369.571E-03
            2730             391     361.493E-03     369.571E-03
            2725             392     338.032E-03     352.111E-03
            2730             392     338.032E-03     352.111E-03
            2145             393     368.018E-03     374.001E-03
            2150             393     368.018E-03     374.001E-03
            2155             394     350.006E-03     367.785E-03
            2150             394     350.006E-03     367.785E-03
            2160             395     355.497E-03     351.704E-03
            2155             395     355.497E-03     351.704E-03
            2165             396     300.474E-03     270.312E-03
            2160             396     300.474E-03     270.312E-03
            2741             416     159.915E-03     173.941E-03
            2742             416     159.915E-03     173.941E-03
            1834             416     159.915E-03     173.941E-03
            1833             416     159.915E-03     173.941E-03
            1834             417     239.530E-03     270.798E-03
            1835             417     239.530E-03     270.798E-03
            2743             417     239.530E-03     270.798E-03
            2742             417     239.530E-03     270.798E-03
            2744             418     311.905E-03     359.906E-03
            2743             418     311.905E-03     359.906E-03
            1836             418     311.905E-03     359.906E-03
            1835             418     311.905E-03     359.906E-03
            1837             419     384.466E-03     432.473E-03
            1836             419     384.466E-03     432.473E-03
            2744             419     384.466E-03     432.473E-03
            2745             419     384.466E-03     432.473E-03
            1837             420     376.654E-03     382.588E-03
            1842             420     376.654E-03     382.588E-03
            1842             421     359.307E-03     376.779E-03
            1847             421     359.307E-03     376.779E-03
            1852             422     364.952E-03     360.261E-03
            1847             422     364.952E-03     360.261E-03
            1852             423     306.387E-03     276.324E-03
            1857             423     306.387E-03     276.324E-03
            1856             424     248.902E-03     295.542E-03
            1857             424     248.902E-03     295.542E-03
            2174             424     248.902E-03     295.542E-03
            2173             424     248.902E-03     295.542E-03
            2172             425     227.116E-03     272.644E-03
            2173             425     227.116E-03     272.644E-03
            1855             425     227.116E-03     272.644E-03
            1856             425     227.116E-03     272.644E-03
            2171             426     213.407E-03     235.930E-03
            1854             426     213.407E-03     235.930E-03
            2172             426     213.407E-03     235.930E-03
            1855             426     213.407E-03     235.930E-03
            1854             427     198.485E-03     205.991E-03
            2171             427     198.485E-03     205.991E-03
            1853             427     198.485E-03     205.991E-03
            2170             427     198.485E-03     205.991E-03
            2164             428     198.811E-03     200.141E-03
            1848             428     198.811E-03     200.141E-03
            1853             428     198.811E-03     200.141E-03
            2169             428     198.811E-03     200.141E-03
            2164             429     201.151E-03     193.535E-03
            2159             429     201.151E-03     193.535E-03
            1848             429     201.151E-03     193.535E-03
            1843             429     201.151E-03     193.535E-03
            1843             430     213.615E-03     208.585E-03
            1838             430     213.615E-03     208.585E-03
            2159             430     213.615E-03     208.585E-03
            2154             430     213.615E-03     208.585E-03
            2149             431     199.118E-03     196.976E-03
            2154             431     199.118E-03     196.976E-03
            1833             431     199.118E-03     196.976E-03
            1838             431     199.118E-03     196.976E-03
            2168             440     198.347E-03     204.620E-03
            2767             440     198.347E-03     204.620E-03
            2169             440     198.347E-03     204.620E-03
            2768             440     198.347E-03     204.620E-03
            2168             441     212.753E-03     233.340E-03
            2767             441     212.753E-03     233.340E-03
            2167             441     212.753E-03     233.340E-03
            2766             441     212.753E-03     233.340E-03
            2765             442     225.331E-03     268.725E-03
            2167             442     225.331E-03     268.725E-03
            2166             442     225.331E-03     268.725E-03
            2766             442     225.331E-03     268.725E-03
            2166             443     245.276E-03     290.300E-03
            2165             443     245.276E-03     290.300E-03
            2764             443     245.276E-03     290.300E-03
            2765             443     245.276E-03     290.300E-03
            2174             444     277.822E-03     276.753E-03
            2179             444     277.822E-03     276.753E-03
            2179             445     225.536E-03     196.623E-03
            2184             445     225.536E-03     196.623E-03
            2189             446     211.516E-03     240.276E-03
            2184             446     211.516E-03     240.276E-03
            2194             447     248.967E-03     247.563E-03
            2189             447     248.967E-03     247.563E-03
            2194             448     198.782E-03     188.565E-03
            2199             448     198.782E-03     188.565E-03
            2204             449     133.883E-03     146.185E-03
            2199             449     133.883E-03     146.185E-03
            2204             450     97.1849E-03     88.4096E-03
            2209             450     97.1849E-03     88.4096E-03
            2214             451     42.1483E-03     47.3431E-03
            2209             451     42.1483E-03     47.3431E-03
            2219             452     22.0575E-03     39.3809E-03
            2214             452     22.0575E-03     39.3809E-03
            2224             453     35.6058E-03     45.3881E-03
            2219             453     35.6058E-03     45.3881E-03
            3190             454     26.9527E-03     27.2525E-03
            2224             454     26.9527E-03     27.2525E-03
            3191             454     26.9527E-03     27.2525E-03
            2223             454     26.9527E-03     27.2525E-03
            2222             455     40.5074E-03     40.7891E-03
            3190             455     40.5074E-03     40.7891E-03
            2223             455     40.5074E-03     40.7891E-03
            3189             455     40.5074E-03     40.7891E-03
            2222             456     51.6192E-03     51.8685E-03
            2221             456     51.6192E-03     51.8685E-03
            3188             456     51.6192E-03     51.8685E-03
            3189             456     51.6192E-03     51.8685E-03
            3188             457     59.0290E-03     59.2596E-03
            2221             457     59.0290E-03     59.2596E-03
            3187             457     59.0290E-03     59.2596E-03
            2220             457     59.0290E-03     59.2596E-03
            2818             458     161.140E-03     160.221E-03
            2813             458     161.140E-03     160.221E-03
            2215             458     161.140E-03     160.221E-03
            2220             458     161.140E-03     160.221E-03
            2210             459     199.768E-03     197.073E-03
            2813             459     199.768E-03     197.073E-03
            2808             459     199.768E-03     197.073E-03
            2215             459     199.768E-03     197.073E-03
            2803             460     200.770E-03     198.603E-03
            2205             460     200.770E-03     198.603E-03
            2210             460     200.770E-03     198.603E-03
            2808             460     200.770E-03     198.603E-03
            2200             461     200.631E-03     198.046E-03
            2205             461     200.631E-03     198.046E-03
            2798             461     200.631E-03     198.046E-03
            2803             461     200.631E-03     198.046E-03
            2793             462     199.212E-03     199.804E-03
            2798             462     199.212E-03     199.804E-03
            2195             462     199.212E-03     199.804E-03
            2200             462     199.212E-03     199.804E-03
            2788             463     201.032E-03     202.208E-03
            2195             463     201.032E-03     202.208E-03
            2190             463     201.032E-03     202.208E-03
            2793             463     201.032E-03     202.208E-03
            2783             464     200.786E-03     197.095E-03
            2190             464     200.786E-03     197.095E-03
            2788             464     200.786E-03     197.095E-03
            2185             464     200.786E-03     197.095E-03
            2778             465     194.001E-03     195.878E-03
            2783             465     194.001E-03     195.878E-03
            2180             465     194.001E-03     195.878E-03
            2185             465     194.001E-03     195.878E-03
            2180             466     196.008E-03     196.653E-03
            2175             466     196.008E-03     196.653E-03
            2778             466     196.008E-03     196.653E-03
            2773             466     196.008E-03     196.653E-03
            2773             467     197.684E-03     190.727E-03
            2175             467     197.684E-03     190.727E-03
            2768             467     197.684E-03     190.727E-03
            2170             467     197.684E-03     190.727E-03
            2769             470     270.720E-03     270.415E-03
            2764             470     270.720E-03     270.415E-03
            2769             471     221.397E-03     192.384E-03
            2774             471     221.397E-03     192.384E-03
            2774             472     208.315E-03     236.285E-03
            2779             472     208.315E-03     236.285E-03
            2779             473     243.665E-03     242.844E-03
            2784             473     243.665E-03     242.844E-03
            2789             474     194.544E-03     184.295E-03
            2784             474     194.544E-03     184.295E-03
            2789             475     130.377E-03     142.625E-03
            2794             475     130.377E-03     142.625E-03
            2799             476     94.3117E-03     85.2291E-03
            2794             476     94.3117E-03     85.2291E-03
            2799             477     44.2021E-03     45.9611E-03
            2804             477     44.2021E-03     45.9611E-03
            2809             478     29.2968E-03     42.5946E-03
            2804             478     29.2968E-03     42.5946E-03
            2809             479     43.3724E-03     51.7977E-03
            2814             479     43.3724E-03     51.7977E-03
            2857             562     400.369E-06     398.709E-06
            2852             562     400.369E-06     398.709E-06
            2857             563     292.517E-06     282.471E-06
            2862             563     292.517E-06     282.471E-06
            2867             564     172.142E-06     187.986E-06
            2862             564     172.142E-06     187.986E-06
            2872             565     113.218E-06     97.4709E-06
            2867             565     113.218E-06     97.4709E-06
            2872             566     80.7501E-06     116.273E-06
            2877             566     80.7501E-06     116.273E-06
            3211             596     80.7501E-06     116.273E-06
            3216             596     80.7501E-06     116.273E-06
            3206             597     113.218E-06     97.4709E-06
            3211             597     113.218E-06     97.4709E-06
            3206             598     172.142E-06     187.986E-06
            3201             598     172.142E-06     187.986E-06
            3196             599     292.517E-06     282.471E-06
            3201             599     292.517E-06     282.471E-06
            3196             600     400.369E-06     398.709E-06
            3191             600     400.369E-06     398.709E-06
            2817             601     60.1586E-03     60.3890E-03
            2856             601     60.1586E-03     60.3890E-03
            2855             601     60.1586E-03     60.3890E-03
            2818             601     60.1586E-03     60.3890E-03
            2854             602     53.7626E-03     54.0114E-03
            2816             602     53.7626E-03     54.0114E-03
            2817             602     53.7626E-03     54.0114E-03
            2855             602     53.7626E-03     54.0114E-03
            2853             603     43.4389E-03     43.7197E-03
            2816             603     43.4389E-03     43.7197E-03
            2854             603     43.4389E-03     43.7197E-03
            2815             603     43.4389E-03     43.7197E-03
            2852             604     30.3254E-03     30.6234E-03
            2815             604     30.3254E-03     30.6234E-03
            2814             604     30.3254E-03     30.6234E-03
            2853             604     30.3254E-03     30.6234E-03
            3192             607     343.500E-06     335.182E-06
            2861             607     343.500E-06     335.182E-06
            3187             607     343.500E-06     335.182E-06
            2856             607     343.500E-06     335.182E-06
            2866             608     344.966E-06     342.488E-06
            3197             608     344.966E-06     342.488E-06
            3192             608     344.966E-06     342.488E-06
            2861             608     344.966E-06     342.488E-06
            3202             609     341.441E-06     340.042E-06
            2871             609     341.441E-06     340.042E-06
            2866             609     341.441E-06     340.042E-06
            3197             609     341.441E-06     340.042E-06
            2871             610     345.189E-06     338.446E-06
            3202             610     345.189E-06     338.446E-06
            3207             610     345.189E-06     338.446E-06
            2876             610     345.189E-06     338.446E-06
            2876             611     342.533E-06     336.117E-06
            3212             611     342.533E-06     336.117E-06
            3207             611     342.533E-06     336.117E-06
            2881             611     342.533E-06     336.117E-06
            2880             612     318.431E-06     312.801E-06
            2881             612     318.431E-06     312.801E-06
            2880             613     251.767E-06     251.230E-06
            2879             613     251.767E-06     251.230E-06
            2879             614     160.872E-06     166.374E-06
            2878             614     160.872E-06     166.374E-06
            2877             615     104.128E-06     136.001E-06
            2878             615     104.128E-06     136.001E-06
            3216             631     104.128E-06     136.001E-06
            3215             631     104.128E-06     136.001E-06
            3215             632     160.872E-06     166.374E-06
            3214             632     160.872E-06     166.374E-06
            3213             633     251.767E-06     251.230E-06
            3214             633     251.767E-06     251.230E-06
            3213             634     318.431E-06     312.801E-06
            3212             634     318.431E-06     312.801E-06
             647            1205     340.317E-06     330.435E-06
             641            1205     340.317E-06     330.435E-06
             642            1205     340.317E-06     330.435E-06
             646            1205     340.317E-06     330.435E-06
             648            1206     323.403E-06     313.472E-06
             647            1206     323.403E-06     313.472E-06
             643            1206     323.403E-06     313.472E-06
             642            1206     323.403E-06     313.472E-06
             649            1207     309.194E-06     306.703E-06
             648            1207     309.194E-06     306.703E-06
             643            1207     309.194E-06     306.703E-06
             644            1207     309.194E-06     306.703E-06
             645            1208     355.514E-06     356.304E-06
             650            1208     355.514E-06     356.304E-06
             644            1208     355.514E-06     356.304E-06
             649            1208     355.514E-06     356.304E-06
             646            1209     336.654E-06     330.811E-06
             651            1209     336.654E-06     330.811E-06
             647            1209     336.654E-06     330.811E-06
             652            1209     336.654E-06     330.811E-06
             648            1210     309.763E-06     294.481E-06
             652            1210     309.763E-06     294.481E-06
             653            1210     309.763E-06     294.481E-06
             647            1210     309.763E-06     294.481E-06
             654            1211     277.145E-06     258.109E-06
             648            1211     277.145E-06     258.109E-06
             649            1211     277.145E-06     258.109E-06
             653            1211     277.145E-06     258.109E-06
             649            1212     278.376E-06     265.088E-06
             654            1212     278.376E-06     265.088E-06
             650            1212     278.376E-06     265.088E-06
             655            1212     278.376E-06     265.088E-06
             657            1213     323.061E-06     324.742E-06
             656            1213     323.061E-06     324.742E-06
             652            1213     323.061E-06     324.742E-06
             651            1213     323.061E-06     324.742E-06
             657            1214     274.166E-06     282.384E-06
             658            1214     274.166E-06     282.384E-06
             653            1214     274.166E-06     282.384E-06
             652            1214     274.166E-06     282.384E-06
             653            1215     203.454E-06     216.928E-06
             659            1215     203.454E-06     216.928E-06
             658            1215     203.454E-06     216.928E-06
             654            1215     203.454E-06     216.928E-06
             659            1216     168.109E-06     183.638E-06
             654            1216     168.109E-06     183.638E-06
             660            1216     168.109E-06     183.638E-06
             655            1216     168.109E-06     183.638E-06
             661            1217     323.963E-06     319.155E-06
             662            1217     323.963E-06     319.155E-06
             657            1217     323.963E-06     319.155E-06
             656            1217     323.963E-06     319.155E-06
             657            1218     265.593E-06     264.713E-06
             658            1218     265.593E-06     264.713E-06
             663            1218     265.593E-06     264.713E-06
             662            1218     265.593E-06     264.713E-06
             658            1219     179.501E-06     173.225E-06
             663            1219     179.501E-06     173.225E-06
             664            1219     179.501E-06     173.225E-06
             659            1219     179.501E-06     173.225E-06
             665            1220     121.942E-06     107.240E-06
             660            1220     121.942E-06     107.240E-06
             664            1220     121.942E-06     107.240E-06
             659            1220     121.942E-06     107.240E-06
             661            1221     321.553E-06     315.907E-06
             667            1221     321.553E-06     315.907E-06
             666            1221     321.553E-06     315.907E-06
             662            1221     321.553E-06     315.907E-06
             662            1222     256.476E-06     257.073E-06
             667            1222     256.476E-06     257.073E-06
             663            1222     256.476E-06     257.073E-06
             668            1222     256.476E-06     257.073E-06
             669            1223     162.097E-06     170.795E-06
             663            1223     162.097E-06     170.795E-06
             664            1223     162.097E-06     170.795E-06
             668            1223     162.097E-06     170.795E-06
             664            1224     96.1412E-06     119.650E-06
             670            1224     96.1412E-06     119.650E-06
             665            1224     96.1412E-06     119.650E-06
             669            1224     96.1412E-06     119.650E-06
             672            1225     62.4633E-03     62.1035E-03
             677            1225     62.4633E-03     62.1035E-03
             671            1225     62.4633E-03     62.1035E-03
             676            1225     62.4633E-03     62.1035E-03
             673            1226     54.0927E-03     54.1735E-03
             672            1226     54.0927E-03     54.1735E-03
             677            1226     54.0927E-03     54.1735E-03
             678            1226     54.0927E-03     54.1735E-03
             678            1227     42.1425E-03     42.4597E-03
             673            1227     42.1425E-03     42.4597E-03
             679            1227     42.1425E-03     42.4597E-03
             674            1227     42.1425E-03     42.4597E-03
             679            1228     27.4652E-03     29.0177E-03
             675            1228     27.4652E-03     29.0177E-03
             674            1228     27.4652E-03     29.0177E-03
             680            1228     27.4652E-03     29.0177E-03
             676            1229     77.0025E-03     76.1136E-03
             677            1229     77.0025E-03     76.1136E-03
             681            1229     77.0025E-03     76.1136E-03
             682            1229     77.0025E-03     76.1136E-03
             682            1230     64.7927E-03     65.6502E-03
             677            1230     64.7927E-03     65.6502E-03
             683            1230     64.7927E-03     65.6502E-03
             678            1230     64.7927E-03     65.6502E-03
             683            1231     48.6130E-03     50.1461E-03
             684            1231     48.6130E-03     50.1461E-03
             678            1231     48.6130E-03     50.1461E-03
             679            1231     48.6130E-03     50.1461E-03
             680            1232     27.2377E-03     29.8262E-03
             685            1232     27.2377E-03     29.8262E-03
             679            1232     27.2377E-03     29.8262E-03
             684            1232     27.2377E-03     29.8262E-03
             681            1233     77.3822E-03     77.0900E-03
             687            1233     77.3822E-03     77.0900E-03
             686            1233     77.3822E-03     77.0900E-03
             682            1233     77.3822E-03     77.0900E-03
             682            1234     66.7774E-03     67.9801E-03
             688            1234     66.7774E-03     67.9801E-03
             683            1234     66.7774E-03     67.9801E-03
             687            1234     66.7774E-03     67.9801E-03
             688            1235     50.8353E-03     52.1149E-03
             683            1235     50.8353E-03     52.1149E-03
             684            1235     50.8353E-03     52.1149E-03
             689            1235     50.8353E-03     52.1149E-03
             690            1236     30.3991E-03     30.7394E-03
             684            1236     30.3991E-03     30.7394E-03
             689            1236     30.3991E-03     30.7394E-03
             685            1236     30.3991E-03     30.7394E-03
             686            1237     78.0242E-03     77.7823E-03
             687            1237     78.0242E-03     77.7823E-03
             691            1237     78.0242E-03     77.7823E-03
             692            1237     78.0242E-03     77.7823E-03
             688            1238     69.9683E-03     69.6732E-03
             687            1238     69.9683E-03     69.6732E-03
             692            1238     69.9683E-03     69.6732E-03
             693            1238     69.9683E-03     69.6732E-03
             688            1239     56.8569E-03     54.9326E-03
             693            1239     56.8569E-03     54.9326E-03
             689            1239     56.8569E-03     54.9326E-03
             694            1239     56.8569E-03     54.9326E-03
             689            1240     43.6853E-03     40.4737E-03
             695            1240     43.6853E-03     40.4737E-03
             690            1240     43.6853E-03     40.4737E-03
             694            1240     43.6853E-03     40.4737E-03
             696            1241     78.4036E-03     79.2001E-03
             692            1241     78.4036E-03     79.2001E-03
             697            1241     78.4036E-03     79.2001E-03
             691            1241     78.4036E-03     79.2001E-03
             692            1242     72.1100E-03     74.1558E-03
             697            1242     72.1100E-03     74.1558E-03
             693            1242     72.1100E-03     74.1558E-03
             698            1242     72.1100E-03     74.1558E-03
             694            1243     61.6745E-03     66.2978E-03
             698            1243     61.6745E-03     66.2978E-03
             699            1243     61.6745E-03     66.2978E-03
             693            1243     61.6745E-03     66.2978E-03
             694            1244     54.3334E-03     60.0730E-03
             699            1244     54.3334E-03     60.0730E-03
             695            1244     54.3334E-03     60.0730E-03
             700            1244     54.3334E-03     60.0730E-03
             696            1245     81.3740E-03     80.4903E-03
             697            1245     81.3740E-03     80.4903E-03
             702            1245     81.3740E-03     80.4903E-03
             701            1245     81.3740E-03     80.4903E-03
             698            1246     80.2511E-03     76.7332E-03
             697            1246     80.2511E-03     76.7332E-03
             702            1246     80.2511E-03     76.7332E-03
             703            1246     80.2511E-03     76.7332E-03
             698            1247     77.7779E-03     73.7412E-03
             703            1247     77.7779E-03     73.7412E-03
             704            1247     77.7779E-03     73.7412E-03
             699            1247     77.7779E-03     73.7412E-03
             705            1248     77.9133E-03     74.2312E-03
             699            1248     77.9133E-03     74.2312E-03
             700            1248     77.9133E-03     74.2312E-03
             704            1248     77.9133E-03     74.2312E-03
             702            1249     82.0830E-03     79.8033E-03
             701            1249     82.0830E-03     79.8033E-03
             706            1249     82.0830E-03     79.8033E-03
             707            1249     82.0830E-03     79.8033E-03
             708            1250     83.0238E-03     80.0584E-03
             703            1250     83.0238E-03     80.0584E-03
             707            1250     83.0238E-03     80.0584E-03
             702            1250     83.0238E-03     80.0584E-03
             703            1251     83.9723E-03     82.8703E-03
             708            1251     83.9723E-03     82.8703E-03
             709            1251     83.9723E-03     82.8703E-03
             704            1251     83.9723E-03     82.8703E-03
             704            1252     92.1276E-03     92.2960E-03
             709            1252     92.1276E-03     92.2960E-03
             710            1252     92.1276E-03     92.2960E-03
             705            1252     92.1276E-03     92.2960E-03
             711            1253     80.1105E-03     80.2585E-03
             707            1253     80.1105E-03     80.2585E-03
             712            1253     80.1105E-03     80.2585E-03
             706            1253     80.1105E-03     80.2585E-03
             712            1254     77.8479E-03     83.1320E-03
             707            1254     77.8479E-03     83.1320E-03
             708            1254     77.8479E-03     83.1320E-03
             713            1254     77.8479E-03     83.1320E-03
             714            1255     77.0615E-03     89.8668E-03
             713            1255     77.0615E-03     89.8668E-03
             709            1255     77.0615E-03     89.8668E-03
             708            1255     77.0615E-03     89.8668E-03
             709            1256     80.9920E-03     93.5293E-03
             715            1256     80.9920E-03     93.5293E-03
             710            1256     80.9920E-03     93.5293E-03
             714            1256     80.9920E-03     93.5293E-03
             717            1257     82.0114E-03     81.7119E-03
             716            1257     82.0114E-03     81.7119E-03
             711            1257     82.0114E-03     81.7119E-03
             712            1257     82.0114E-03     81.7119E-03
             712            1258     82.8497E-03     83.4366E-03
             718            1258     82.8497E-03     83.4366E-03
             717            1258     82.8497E-03     83.4366E-03
             713            1258     82.8497E-03     83.4366E-03
             718            1259     86.3464E-03     87.6310E-03
             713            1259     86.3464E-03     87.6310E-03
             719            1259     86.3464E-03     87.6310E-03
             714            1259     86.3464E-03     87.6310E-03
             715            1260     83.1502E-03     81.9163E-03
             720            1260     83.1502E-03     81.9163E-03
             719            1260     83.1502E-03     81.9163E-03
             714            1260     83.1502E-03     81.9163E-03
             717            1261     84.4036E-03     83.1202E-03
             716            1261     84.4036E-03     83.1202E-03
             722            1261     84.4036E-03     83.1202E-03
             721            1261     84.4036E-03     83.1202E-03
             723            1262     89.3069E-03     88.1074E-03
             717            1262     89.3069E-03     88.1074E-03
             722            1262     89.3069E-03     88.1074E-03
             718            1262     89.3069E-03     88.1074E-03
             718            1263     94.0605E-03     92.3529E-03
             724            1263     94.0605E-03     92.3529E-03
             723            1263     94.0605E-03     92.3529E-03
             719            1263     94.0605E-03     92.3529E-03
             720            1264     95.1443E-03     91.8599E-03
             725            1264     95.1443E-03     91.8599E-03
             724            1264     95.1443E-03     91.8599E-03
             719            1264     95.1443E-03     91.8599E-03
             721            1265     84.9568E-03     86.7542E-03
             722            1265     84.9568E-03     86.7542E-03
             726            1265     84.9568E-03     86.7542E-03
             727            1265     84.9568E-03     86.7542E-03
             722            1266     91.5979E-03     96.5961E-03
             727            1266     91.5979E-03     96.5961E-03
             723            1266     91.5979E-03     96.5961E-03
             728            1266     91.5979E-03     96.5961E-03
             723            1267     96.2337E-03     106.404E-03
             724            1267     96.2337E-03     106.404E-03
             728            1267     96.2337E-03     106.404E-03
             729            1267     96.2337E-03     106.404E-03
             725            1268     102.990E-03     113.177E-03
             724            1268     102.990E-03     113.177E-03
             730            1268     102.990E-03     113.177E-03
             729            1268     102.990E-03     113.177E-03
             727            1269     89.7127E-03     88.6762E-03
             726            1269     89.7127E-03     88.6762E-03
             731            1269     89.7127E-03     88.6762E-03
             732            1269     89.7127E-03     88.6762E-03
             732            1270     105.586E-03     99.1743E-03
             728            1270     105.586E-03     99.1743E-03
             727            1270     105.586E-03     99.1743E-03
             733            1270     105.586E-03     99.1743E-03
             728            1271     120.430E-03     113.031E-03
             734            1271     120.430E-03     113.031E-03
             733            1271     120.430E-03     113.031E-03
             729            1271     120.430E-03     113.031E-03
             729            1272     132.906E-03     127.059E-03
             735            1272     132.906E-03     127.059E-03
             734            1272     132.906E-03     127.059E-03
             730            1272     132.906E-03     127.059E-03
             732            1273     90.2719E-03     87.2032E-03
             736            1273     90.2719E-03     87.2032E-03
             731            1273     90.2719E-03     87.2032E-03
             737            1273     90.2719E-03     87.2032E-03
             737            1274     108.534E-03     103.551E-03
             732            1274     108.534E-03     103.551E-03
             738            1274     108.534E-03     103.551E-03
             733            1274     108.534E-03     103.551E-03
             734            1275     127.071E-03     124.915E-03
             739            1275     127.071E-03     124.915E-03
             733            1275     127.071E-03     124.915E-03
             738            1275     127.071E-03     124.915E-03
             734            1276     148.303E-03     147.911E-03
             740            1276     148.303E-03     147.911E-03
             735            1276     148.303E-03     147.911E-03
             739            1276     148.303E-03     147.911E-03
             737            1277     86.7273E-03     88.3471E-03
             736            1277     86.7273E-03     88.3471E-03
             741            1277     86.7273E-03     88.3471E-03
             742            1277     86.7273E-03     88.3471E-03
             743            1278     98.6499E-03     109.638E-03
             738            1278     98.6499E-03     109.638E-03
             737            1278     98.6499E-03     109.638E-03
             742            1278     98.6499E-03     109.638E-03
             738            1279     114.718E-03     138.640E-03
             743            1279     114.718E-03     138.640E-03
             744            1279     114.718E-03     138.640E-03
             739            1279     114.718E-03     138.640E-03
             739            1280     133.149E-03     156.117E-03
             744            1280     133.149E-03     156.117E-03
             740            1280     133.149E-03     156.117E-03
             745            1280     133.149E-03     156.117E-03
             742            1281     90.4268E-03     89.8604E-03
             746            1281     90.4268E-03     89.8604E-03
             741            1281     90.4268E-03     89.8604E-03
             747            1281     90.4268E-03     89.8604E-03
             742            1282     107.578E-03     108.367E-03
             748            1282     107.578E-03     108.367E-03
             747            1282     107.578E-03     108.367E-03
             743            1282     107.578E-03     108.367E-03
             749            1283     131.082E-03     132.277E-03
             748            1283     131.082E-03     132.277E-03
             744            1283     131.082E-03     132.277E-03
             743            1283     131.082E-03     132.277E-03
             749            1284     142.644E-03     138.923E-03
             744            1284     142.644E-03     138.923E-03
             750            1284     142.644E-03     138.923E-03
             745            1284     142.644E-03     138.923E-03
             752            1285     94.3493E-03     93.0701E-03
             747            1285     94.3493E-03     93.0701E-03
             746            1285     94.3493E-03     93.0701E-03
             751            1285     94.3493E-03     93.0701E-03
             748            1286     116.588E-03     115.947E-03
             752            1286     116.588E-03     115.947E-03
             753            1286     116.588E-03     115.947E-03
             747            1286     116.588E-03     115.947E-03
             754            1287     138.364E-03     139.401E-03
             748            1287     138.364E-03     139.401E-03
             753            1287     138.364E-03     139.401E-03
             749            1287     138.364E-03     139.401E-03
             755            1288     150.394E-03     151.227E-03
             749            1288     150.394E-03     151.227E-03
             750            1288     150.394E-03     151.227E-03
             754            1288     150.394E-03     151.227E-03
             751            1289     97.5473E-03     96.7199E-03
             757            1289     97.5473E-03     96.7199E-03
             752            1289     97.5473E-03     96.7199E-03
             756            1289     97.5473E-03     96.7199E-03
             753            1290     121.251E-03     121.301E-03
             758            1290     121.251E-03     121.301E-03
             752            1290     121.251E-03     121.301E-03
             757            1290     121.251E-03     121.301E-03
             759            1291     142.904E-03     145.415E-03
             754            1291     142.904E-03     145.415E-03
             753            1291     142.904E-03     145.415E-03
             758            1291     142.904E-03     145.415E-03
             754            1292     161.447E-03     163.417E-03
             755            1292     161.447E-03     163.417E-03
             760            1292     161.447E-03     163.417E-03
             759            1292     161.447E-03     163.417E-03
             756            1293     98.2776E-03     100.803E-03
             762            1293     98.2776E-03     100.803E-03
             757            1293     98.2776E-03     100.803E-03
             761            1293     98.2776E-03     100.803E-03
             758            1294     126.031E-03     130.594E-03
             762            1294     126.031E-03     130.594E-03
             763            1294     126.031E-03     130.594E-03
             757            1294     126.031E-03     130.594E-03
             758            1295     150.292E-03     161.831E-03
             759            1295     150.292E-03     161.831E-03
             763            1295     150.292E-03     161.831E-03
             764            1295     150.292E-03     161.831E-03
             760            1296     173.475E-03     185.393E-03
             764            1296     173.475E-03     185.393E-03
             765            1296     173.475E-03     185.393E-03
             759            1296     173.475E-03     185.393E-03
             766            1297     105.010E-03     103.162E-03
             762            1297     105.010E-03     103.162E-03
             767            1297     105.010E-03     103.162E-03
             761            1297     105.010E-03     103.162E-03
             768            1298     144.741E-03     135.207E-03
             763            1298     144.741E-03     135.207E-03
             767            1298     144.741E-03     135.207E-03
             762            1298     144.741E-03     135.207E-03
             769            1299     180.015E-03     172.099E-03
             768            1299     180.015E-03     172.099E-03
             763            1299     180.015E-03     172.099E-03
             764            1299     180.015E-03     172.099E-03
             769            1300     206.690E-03     201.365E-03
             765            1300     206.690E-03     201.365E-03
             764            1300     206.690E-03     201.365E-03
             770            1300     206.690E-03     201.365E-03
             767            1301     104.619E-03     100.264E-03
             772            1301     104.619E-03     100.264E-03
             771            1301     104.619E-03     100.264E-03
             766            1301     104.619E-03     100.264E-03
             772            1302     146.856E-03     139.813E-03
             767            1302     146.856E-03     139.813E-03
             768            1302     146.856E-03     139.813E-03
             773            1302     146.856E-03     139.813E-03
             769            1303     188.020E-03     184.818E-03
             773            1303     188.020E-03     184.818E-03
             768            1303     188.020E-03     184.818E-03
             774            1303     188.020E-03     184.818E-03
             770            1304     224.413E-03     222.425E-03
             775            1304     224.413E-03     222.425E-03
             774            1304     224.413E-03     222.425E-03
             769            1304     224.413E-03     222.425E-03
             772            1305     97.6898E-03     101.654E-03
             777            1305     97.6898E-03     101.654E-03
             771            1305     97.6898E-03     101.654E-03
             776            1305     97.6898E-03     101.654E-03
             772            1306     129.360E-03     148.346E-03
             778            1306     129.360E-03     148.346E-03
             773            1306     129.360E-03     148.346E-03
             777            1306     129.360E-03     148.346E-03
             779            1307     165.819E-03     203.752E-03
             774            1307     165.819E-03     203.752E-03
             773            1307     165.819E-03     203.752E-03
             778            1307     165.819E-03     203.752E-03
             780            1308     200.145E-03     235.523E-03
             779            1308     200.145E-03     235.523E-03
             774            1308     200.145E-03     235.523E-03
             775            1308     200.145E-03     235.523E-03
             776            1309     103.864E-03     102.892E-03
             781            1309     103.864E-03     102.892E-03
             782            1309     103.864E-03     102.892E-03
             777            1309     103.864E-03     102.892E-03
             783            1310     143.802E-03     143.516E-03
             782            1310     143.802E-03     143.516E-03
             778            1310     143.802E-03     143.516E-03
             777            1310     143.802E-03     143.516E-03
             783            1311     189.090E-03     189.765E-03
             779            1311     189.090E-03     189.765E-03
             778            1311     189.090E-03     189.765E-03
             784            1311     189.090E-03     189.765E-03
             780            1312     214.745E-03     209.828E-03
             779            1312     214.745E-03     209.828E-03
             785            1312     214.745E-03     209.828E-03
             784            1312     214.745E-03     209.828E-03
             786            1313     109.778E-03     107.348E-03
             782            1313     109.778E-03     107.348E-03
             787            1313     109.778E-03     107.348E-03
             781            1313     109.778E-03     107.348E-03
             788            1314     155.460E-03     152.435E-03
             783            1314     155.460E-03     152.435E-03
             782            1314     155.460E-03     152.435E-03
             787            1314     155.460E-03     152.435E-03
             783            1315     196.879E-03     196.266E-03
             789            1315     196.879E-03     196.266E-03
             784            1315     196.879E-03     196.266E-03
             788            1315     196.879E-03     196.266E-03
             790            1316     221.095E-03     221.100E-03
             789            1316     221.095E-03     221.100E-03
             785            1316     221.095E-03     221.100E-03
             784            1316     221.095E-03     221.100E-03
             792            1317     113.111E-03     112.299E-03
             786            1317     113.111E-03     112.299E-03
             791            1317     113.111E-03     112.299E-03
             787            1317     113.111E-03     112.299E-03
             788            1318     157.847E-03     158.688E-03
             787            1318     157.847E-03     158.688E-03
             792            1318     157.847E-03     158.688E-03
             793            1318     157.847E-03     158.688E-03
             788            1319     196.569E-03     202.060E-03
             794            1319     196.569E-03     202.060E-03
             793            1319     196.569E-03     202.060E-03
             789            1319     196.569E-03     202.060E-03
             789            1320     228.111E-03     233.025E-03
             794            1320     228.111E-03     233.025E-03
             795            1320     228.111E-03     233.025E-03
             790            1320     228.111E-03     233.025E-03
             791            1321     113.694E-03     117.154E-03
             797            1321     113.694E-03     117.154E-03
             796            1321     113.694E-03     117.154E-03
             792            1321     113.694E-03     117.154E-03
             792            1322     163.093E-03     168.724E-03
             797            1322     163.093E-03     168.724E-03
             793            1322     163.093E-03     168.724E-03
             798            1322     163.093E-03     168.724E-03
             798            1323     204.243E-03     219.010E-03
             799            1323     204.243E-03     219.010E-03
             794            1323     204.243E-03     219.010E-03
             793            1323     204.243E-03     219.010E-03
             799            1324     240.328E-03     255.317E-03
             795            1324     240.328E-03     255.317E-03
             794            1324     240.328E-03     255.317E-03
             800            1324     240.328E-03     255.317E-03
             796            1325     121.773E-03     119.452E-03
             801            1325     121.773E-03     119.452E-03
             797            1325     121.773E-03     119.452E-03
             802            1325     121.773E-03     119.452E-03
             798            1326     185.901E-03     173.525E-03
             797            1326     185.901E-03     173.525E-03
             802            1326     185.901E-03     173.525E-03
             803            1326     185.901E-03     173.525E-03
             804            1327     239.883E-03     230.132E-03
             799            1327     239.883E-03     230.132E-03
             803            1327     239.883E-03     230.132E-03
             798            1327     239.883E-03     230.132E-03
             805            1328     278.289E-03     272.040E-03
             804            1328     278.289E-03     272.040E-03
             799            1328     278.289E-03     272.040E-03
             800            1328     278.289E-03     272.040E-03
             802            1329     120.170E-03     114.828E-03
             801            1329     120.170E-03     114.828E-03
             806            1329     120.170E-03     114.828E-03
             807            1329     120.170E-03     114.828E-03
             802            1330     186.534E-03     177.817E-03
             803            1330     186.534E-03     177.817E-03
             808            1330     186.534E-03     177.817E-03
             807            1330     186.534E-03     177.817E-03
             809            1331     248.142E-03     244.204E-03
             808            1331     248.142E-03     244.204E-03
             803            1331     248.142E-03     244.204E-03
             804            1331     248.142E-03     244.204E-03
             804            1332     297.907E-03     294.749E-03
             810            1332     297.907E-03     294.749E-03
             809            1332     297.907E-03     294.749E-03
             805            1332     297.907E-03     294.749E-03
             811            1333     110.471E-03     117.268E-03
             812            1333     110.471E-03     117.268E-03
             806            1333     110.471E-03     117.268E-03
             807            1333     110.471E-03     117.268E-03
             812            1334     162.203E-03     189.103E-03
             813            1334     162.203E-03     189.103E-03
             807            1334     162.203E-03     189.103E-03
             808            1334     162.203E-03     189.103E-03
             808            1335     216.510E-03     267.680E-03
             809            1335     216.510E-03     267.680E-03
             813            1335     216.510E-03     267.680E-03
             814            1335     216.510E-03     267.680E-03
             815            1336     265.999E-03     312.757E-03
             809            1336     265.999E-03     312.757E-03
             810            1336     265.999E-03     312.757E-03
             814            1336     265.999E-03     312.757E-03
             817            1337     120.582E-03     119.632E-03
             812            1337     120.582E-03     119.632E-03
             816            1337     120.582E-03     119.632E-03
             811            1337     120.582E-03     119.632E-03
             817            1338     184.742E-03     181.941E-03
             818            1338     184.742E-03     181.941E-03
             812            1338     184.742E-03     181.941E-03
             813            1338     184.742E-03     181.941E-03
             814            1339     249.195E-03     249.090E-03
             819            1339     249.195E-03     249.090E-03
             818            1339     249.195E-03     249.090E-03
             813            1339     249.195E-03     249.090E-03
             819            1340     286.299E-03     283.152E-03
             815            1340     286.299E-03     283.152E-03
             814            1340     286.299E-03     283.152E-03
             820            1340     286.299E-03     283.152E-03
             821            1341     128.354E-03     123.513E-03
             817            1341     128.354E-03     123.513E-03
             822            1341     128.354E-03     123.513E-03
             816            1341     128.354E-03     123.513E-03
             817            1342     198.973E-03     188.693E-03
             818            1342     198.973E-03     188.693E-03
             822            1342     198.973E-03     188.693E-03
             823            1342     198.973E-03     188.693E-03
             819            1343     260.389E-03     248.921E-03
             823            1343     260.389E-03     248.921E-03
             824            1343     260.389E-03     248.921E-03
             818            1343     260.389E-03     248.921E-03
             819            1344     297.690E-03     286.078E-03
             824            1344     297.690E-03     286.078E-03
             820            1344     297.690E-03     286.078E-03
             825            1344     297.690E-03     286.078E-03
             821            1345     126.169E-03     133.354E-03
             822            1345     126.169E-03     133.354E-03
             826            1345     126.169E-03     133.354E-03
             827            1345     126.169E-03     133.354E-03
             823            1346     191.121E-03     207.377E-03
             828            1346     191.121E-03     207.377E-03
             827            1346     191.121E-03     207.377E-03
             822            1346     191.121E-03     207.377E-03
             823            1347     241.958E-03     273.557E-03
             829            1347     241.958E-03     273.557E-03
             828            1347     241.958E-03     273.557E-03
             824            1347     241.958E-03     273.557E-03
             824            1348     285.757E-03     316.630E-03
             830            1348     285.757E-03     316.630E-03
             825            1348     285.757E-03     316.630E-03
             829            1348     285.757E-03     316.630E-03
             826            1349     136.059E-03     133.590E-03
             832            1349     136.059E-03     133.590E-03
             831            1349     136.059E-03     133.590E-03
             827            1349     136.059E-03     133.590E-03
             827            1350     220.527E-03     204.204E-03
             832            1350     220.527E-03     204.204E-03
             833            1350     220.527E-03     204.204E-03
             828            1350     220.527E-03     204.204E-03
             829            1351     290.102E-03     272.510E-03
             828            1351     290.102E-03     272.510E-03
             833            1351     290.102E-03     272.510E-03
             834            1351     290.102E-03     272.510E-03
             829            1352     337.434E-03     323.222E-03
             834            1352     337.434E-03     323.222E-03
             835            1352     337.434E-03     323.222E-03
             830            1352     337.434E-03     323.222E-03
             831            1353     133.731E-03     127.902E-03
             832            1353     133.731E-03     127.902E-03
             837            1353     133.731E-03     127.902E-03
             836            1353     133.731E-03     127.902E-03
             837            1354     219.634E-03     209.384E-03
             838            1354     219.634E-03     209.384E-03
             833            1354     219.634E-03     209.384E-03
             832            1354     219.634E-03     209.384E-03
             838            1355     296.018E-03     291.683E-03
             839            1355     296.018E-03     291.683E-03
             834            1355     296.018E-03     291.683E-03
             833            1355     296.018E-03     291.683E-03
             840            1356     355.211E-03     353.033E-03
             835            1356     355.211E-03     353.033E-03
             839            1356     355.211E-03     353.033E-03
             834            1356     355.211E-03     353.033E-03
            1618            2006     355.514E-06     356.304E-06
            1623            2006     355.514E-06     356.304E-06
            1624            2006     355.514E-06     356.304E-06
            1619            2006     355.514E-06     356.304E-06
            1620            2007     309.194E-06     306.703E-06
            1619            2007     309.194E-06     306.703E-06
            1624            2007     309.194E-06     306.703E-06
            1625            2007     309.194E-06     306.703E-06
            1621            2008     323.403E-06     313.472E-06
            1625            2008     323.403E-06     313.472E-06
            1626            2008     323.403E-06     313.472E-06
            1620            2008     323.403E-06     313.472E-06
            1626            2009     340.317E-06     330.435E-06
            1621            2009     340.317E-06     330.435E-06
            1627            2009     340.317E-06     330.435E-06
            1622            2009     340.317E-06     330.435E-06
            1623            2010     278.376E-06     265.088E-06
            1628            2010     278.376E-06     265.088E-06
            1629            2010     278.376E-06     265.088E-06
            1624            2010     278.376E-06     265.088E-06
            1624            2011     277.145E-06     258.109E-06
            1630            2011     277.145E-06     258.109E-06
            1625            2011     277.145E-06     258.109E-06
            1629            2011     277.145E-06     258.109E-06
            1630            2012     309.763E-06     294.481E-06
            1631            2012     309.763E-06     294.481E-06
            1625            2012     309.763E-06     294.481E-06
            1626            2012     309.763E-06     294.481E-06
            1631            2013     336.654E-06     330.811E-06
            1632            2013     336.654E-06     330.811E-06
            1627            2013     336.654E-06     330.811E-06
            1626            2013     336.654E-06     330.811E-06
            1628            2014     168.109E-06     183.638E-06
            1633            2014     168.109E-06     183.638E-06
            1634            2014     168.109E-06     183.638E-06
            1629            2014     168.109E-06     183.638E-06
            1629            2015     203.454E-06     216.928E-06
            1635            2015     203.454E-06     216.928E-06
            1630            2015     203.454E-06     216.928E-06
            1634            2015     203.454E-06     216.928E-06
            1635            2016     274.166E-06     282.384E-06
            1636            2016     274.166E-06     282.384E-06
            1630            2016     274.166E-06     282.384E-06
            1631            2016     274.166E-06     282.384E-06
            1636            2017     323.061E-06     324.742E-06
            1637            2017     323.061E-06     324.742E-06
            1632            2017     323.061E-06     324.742E-06
            1631            2017     323.061E-06     324.742E-06
            1634            2018     121.942E-06     107.240E-06
            1638            2018     121.942E-06     107.240E-06
            1633            2018     121.942E-06     107.240E-06
            1639            2018     121.942E-06     107.240E-06
            1640            2019     179.501E-06     173.225E-06
            1634            2019     179.501E-06     173.225E-06
            1635            2019     179.501E-06     173.225E-06
            1639            2019     179.501E-06     173.225E-06
            1635            2020     265.593E-06     264.713E-06
            1640            2020     265.593E-06     264.713E-06
            1636            2020     265.593E-06     264.713E-06
            1641            2020     265.593E-06     264.713E-06
            1642            2021     323.963E-06     319.155E-06
            1636            2021     323.963E-06     319.155E-06
            1637            2021     323.963E-06     319.155E-06
            1641            2021     323.963E-06     319.155E-06
            1643            2022     96.1412E-06     119.650E-06
            1639            2022     96.1412E-06     119.650E-06
            1644            2022     96.1412E-06     119.650E-06
            1638            2022     96.1412E-06     119.650E-06
            1639            2023     162.097E-06     170.795E-06
            1645            2023     162.097E-06     170.795E-06
            1640            2023     162.097E-06     170.795E-06
            1644            2023     162.097E-06     170.795E-06
            1640            2024     256.476E-06     257.073E-06
            1641            2024     256.476E-06     257.073E-06
            1645            2024     256.476E-06     257.073E-06
            1646            2024     256.476E-06     257.073E-06
            1641            2025     321.553E-06     315.907E-06
            1647            2025     321.553E-06     315.907E-06
            1646            2025     321.553E-06     315.907E-06
            1642            2025     321.553E-06     315.907E-06
            1654            2026     335.553E-03     354.188E-03
            1648            2026     335.553E-03     354.188E-03
            1653            2026     335.553E-03     354.188E-03
            1649            2026     335.553E-03     354.188E-03
            1650            2027     286.284E-03     308.278E-03
            1654            2027     286.284E-03     308.278E-03
            1649            2027     286.284E-03     308.278E-03
            1655            2027     286.284E-03     308.278E-03
            1655            2028     212.214E-03     226.798E-03
            1651            2028     212.214E-03     226.798E-03
            1656            2028     212.214E-03     226.798E-03
            1650            2028     212.214E-03     226.798E-03
            1652            2029     123.909E-03     131.972E-03
            1657            2029     123.909E-03     131.972E-03
            1651            2029     123.909E-03     131.972E-03
            1656            2029     123.909E-03     131.972E-03
            1653            2030     358.472E-03     368.811E-03
            1654            2030     358.472E-03     368.811E-03
            1659            2030     358.472E-03     368.811E-03
            1658            2030     358.472E-03     368.811E-03
            1659            2031     312.596E-03     324.706E-03
            1660            2031     312.596E-03     324.706E-03
            1654            2031     312.596E-03     324.706E-03
            1655            2031     312.596E-03     324.706E-03
            1655            2032     234.758E-03     239.087E-03
            1656            2032     234.758E-03     239.087E-03
            1661            2032     234.758E-03     239.087E-03
            1660            2032     234.758E-03     239.087E-03
            1661            2033     135.404E-03     139.223E-03
            1656            2033     135.404E-03     139.223E-03
            1662            2033     135.404E-03     139.223E-03
            1657            2033     135.404E-03     139.223E-03
            1663            2034     400.401E-03     374.126E-03
            1658            2034     400.401E-03     374.126E-03
            1659            2034     400.401E-03     374.126E-03
            1664            2034     400.401E-03     374.126E-03
            1659            2035     353.337E-03     325.009E-03
            1660            2035     353.337E-03     325.009E-03
            1664            2035     353.337E-03     325.009E-03
            1665            2035     353.337E-03     325.009E-03
            1660            2036     265.463E-03     242.643E-03
            1661            2036     265.463E-03     242.643E-03
            1666            2036     265.463E-03     242.643E-03
            1665            2036     265.463E-03     242.643E-03
            1662            2037     146.116E-03     139.490E-03
            1661            2037     146.116E-03     139.490E-03
            1666            2037     146.116E-03     139.490E-03
            1667            2037     146.116E-03     139.490E-03
            1668            2038     396.823E-03     404.930E-03
            1664            2038     396.823E-03     404.930E-03
            1669            2038     396.823E-03     404.930E-03
            1663            2038     396.823E-03     404.930E-03
            1669            2039     331.041E-03     337.149E-03
            1670            2039     331.041E-03     337.149E-03
            1664            2039     331.041E-03     337.149E-03
            1665            2039     331.041E-03     337.149E-03
            1666            2040     243.601E-03     242.425E-03
            1670            2040     243.601E-03     242.425E-03
            1665            2040     243.601E-03     242.425E-03
            1671            2040     243.601E-03     242.425E-03
            1667            2041     133.153E-03     132.079E-03
            1666            2041     133.153E-03     132.079E-03
            1671            2041     133.153E-03     132.079E-03
            1672            2041     133.153E-03     132.079E-03
            1833            2162     222.765E-03     223.330E-03
            1838            2162     222.765E-03     223.330E-03
            1834            2162     222.765E-03     223.330E-03
            1839            2162     222.765E-03     223.330E-03
            1839            2163     274.100E-03     277.268E-03
            1834            2163     274.100E-03     277.268E-03
            1840            2163     274.100E-03     277.268E-03
            1835            2163     274.100E-03     277.268E-03
            1840            2164     327.480E-03     332.799E-03
            1835            2164     327.480E-03     332.799E-03
            1836            2164     327.480E-03     332.799E-03
            1841            2164     327.480E-03     332.799E-03
            1841            2165     364.340E-03     371.025E-03
            1842            2165     364.340E-03     371.025E-03
            1837            2165     364.340E-03     371.025E-03
            1836            2165     364.340E-03     371.025E-03
            1843            2166     228.540E-03     229.104E-03
            1839            2166     228.540E-03     229.104E-03
            1844            2166     228.540E-03     229.104E-03
            1838            2166     228.540E-03     229.104E-03
            1840            2167     264.284E-03     273.230E-03
            1845            2167     264.284E-03     273.230E-03
            1844            2167     264.284E-03     273.230E-03
            1839            2167     264.284E-03     273.230E-03
            1841            2168     302.095E-03     323.555E-03
            1845            2168     302.095E-03     323.555E-03
            1840            2168     302.095E-03     323.555E-03
            1846            2168     302.095E-03     323.555E-03
            1846            2169     338.885E-03     363.068E-03
            1847            2169     338.885E-03     363.068E-03
            1842            2169     338.885E-03     363.068E-03
            1841            2169     338.885E-03     363.068E-03
            1849            2170     219.314E-03     213.929E-03
            1848            2170     219.314E-03     213.929E-03
            1844            2170     219.314E-03     213.929E-03
            1843            2170     219.314E-03     213.929E-03
            1850            2171     262.997E-03     254.680E-03
            1849            2171     262.997E-03     254.680E-03
            1844            2171     262.997E-03     254.680E-03
            1845            2171     262.997E-03     254.680E-03
            1850            2172     304.358E-03     298.023E-03
            1845            2172     304.358E-03     298.023E-03
            1846            2172     304.358E-03     298.023E-03
            1851            2172     304.358E-03     298.023E-03
            1851            2173     342.242E-03     340.209E-03
            1852            2173     342.242E-03     340.209E-03
            1846            2173     342.242E-03     340.209E-03
            1847            2173     342.242E-03     340.209E-03
            1849            2174     215.510E-03     212.006E-03
            1853            2174     215.510E-03     212.006E-03
            1854            2174     215.510E-03     212.006E-03
            1848            2174     215.510E-03     212.006E-03
            1849            2175     253.694E-03     239.676E-03
            1855            2175     253.694E-03     239.676E-03
            1854            2175     253.694E-03     239.676E-03
            1850            2175     253.694E-03     239.676E-03
            1851            2176     293.986E-03     274.350E-03
            1850            2176     293.986E-03     274.350E-03
            1856            2176     293.986E-03     274.350E-03
            1855            2176     293.986E-03     274.350E-03
            1851            2177     309.308E-03     284.644E-03
            1856            2177     309.308E-03     284.644E-03
            1857            2177     309.308E-03     284.644E-03
            1852            2177     309.308E-03     284.644E-03
            1858            2178     21.3689E-03     23.4271E-03
            1863            2178     21.3689E-03     23.4271E-03
            1859            2178     21.3689E-03     23.4271E-03
            1864            2178     21.3689E-03     23.4271E-03
            1860            2179     36.7393E-03     37.0036E-03
            1864            2179     36.7393E-03     37.0036E-03
            1859            2179     36.7393E-03     37.0036E-03
            1865            2179     36.7393E-03     37.0036E-03
            1865            2180     50.1451E-03     50.2167E-03
            1866            2180     50.1451E-03     50.2167E-03
            1860            2180     50.1451E-03     50.2167E-03
            1861            2180     50.1451E-03     50.2167E-03
            1867            2181     60.3598E-03     60.0252E-03
            1866            2181     60.3598E-03     60.0252E-03
            1862            2181     60.3598E-03     60.0252E-03
            1861            2181     60.3598E-03     60.0252E-03
            1868            2182     21.1339E-03     25.2671E-03
            1869            2182     21.1339E-03     25.2671E-03
            1863            2182     21.1339E-03     25.2671E-03
            1864            2182     21.1339E-03     25.2671E-03
            1870            2183     42.4302E-03     44.2218E-03
            1864            2183     42.4302E-03     44.2218E-03
            1869            2183     42.4302E-03     44.2218E-03
            1865            2183     42.4302E-03     44.2218E-03
            1865            2184     60.2719E-03     61.2838E-03
            1870            2184     60.2719E-03     61.2838E-03
            1866            2184     60.2719E-03     61.2838E-03
            1871            2184     60.2719E-03     61.2838E-03
            1867            2185     74.5644E-03     73.7759E-03
            1871            2185     74.5644E-03     73.7759E-03
            1872            2185     74.5644E-03     73.7759E-03
            1866            2185     74.5644E-03     73.7759E-03
            1869            2186     27.0946E-03     28.7213E-03
            1874            2186     27.0946E-03     28.7213E-03
            1868            2186     27.0946E-03     28.7213E-03
            1873            2186     27.0946E-03     28.7213E-03
            1870            2187     45.6617E-03     47.1241E-03
            1875            2187     45.6617E-03     47.1241E-03
            1874            2187     45.6617E-03     47.1241E-03
            1869            2187     45.6617E-03     47.1241E-03
            1876            2188     62.6784E-03     63.9312E-03
            1870            2188     62.6784E-03     63.9312E-03
            1871            2188     62.6784E-03     63.9312E-03
            1875            2188     62.6784E-03     63.9312E-03
            1877            2189     75.1327E-03     74.8578E-03
            1871            2189     75.1327E-03     74.8578E-03
            1876            2189     75.1327E-03     74.8578E-03
            1872            2189     75.1327E-03     74.8578E-03
            1874            2190     43.2864E-03     40.1112E-03
            1873            2190     43.2864E-03     40.1112E-03
            1879            2190     43.2864E-03     40.1112E-03
            1878            2190     43.2864E-03     40.1112E-03
            1879            2191     53.3868E-03     51.2920E-03
            1875            2191     53.3868E-03     51.2920E-03
            1880            2191     53.3868E-03     51.2920E-03
            1874            2191     53.3868E-03     51.2920E-03
            1881            2192     66.6733E-03     66.2124E-03
            1880            2192     66.6733E-03     66.2124E-03
            1875            2192     66.6733E-03     66.2124E-03
            1876            2192     66.6733E-03     66.2124E-03
            1882            2193     76.1549E-03     75.8216E-03
            1877            2193     76.1549E-03     75.8216E-03
            1876            2193     76.1549E-03     75.8216E-03
            1881            2193     76.1549E-03     75.8216E-03
            1883            2194     54.9350E-03     61.1204E-03
            1879            2194     54.9350E-03     61.1204E-03
            1884            2194     54.9350E-03     61.1204E-03
            1878            2194     54.9350E-03     61.1204E-03
            1879            2195     59.3844E-03     64.7748E-03
            1880            2195     59.3844E-03     64.7748E-03
            1884            2195     59.3844E-03     64.7748E-03
            1885            2195     59.3844E-03     64.7748E-03
            1886            2196     69.4917E-03     72.0459E-03
            1885            2196     69.4917E-03     72.0459E-03
            1880            2196     69.4917E-03     72.0459E-03
            1881            2196     69.4917E-03     72.0459E-03
            1887            2197     76.8717E-03     77.9093E-03
            1882            2197     76.8717E-03     77.9093E-03
            1881            2197     76.8717E-03     77.9093E-03
            1886            2197     76.8717E-03     77.9093E-03
            1884            2198     79.9023E-03     76.1547E-03
            1883            2198     79.9023E-03     76.1547E-03
            1888            2198     79.9023E-03     76.1547E-03
            1889            2198     79.9023E-03     76.1547E-03
            1890            2199     77.6514E-03     73.2340E-03
            1889            2199     77.6514E-03     73.2340E-03
            1884            2199     77.6514E-03     73.2340E-03
            1885            2199     77.6514E-03     73.2340E-03
            1891            2200     79.3828E-03     75.3314E-03
            1885            2200     79.3828E-03     75.3314E-03
            1886            2200     79.3828E-03     75.3314E-03
            1890            2200     79.3828E-03     75.3314E-03
            1887            2201     80.7471E-03     79.5523E-03
            1886            2201     80.7471E-03     79.5523E-03
            1891            2201     80.7471E-03     79.5523E-03
            1892            2201     80.7471E-03     79.5523E-03
            1889            2202     95.0375E-03     94.9592E-03
            1893            2202     95.0375E-03     94.9592E-03
            1888            2202     95.0375E-03     94.9592E-03
            1894            2202     95.0375E-03     94.9592E-03
            1889            2203     84.7699E-03     83.7469E-03
            1894            2203     84.7699E-03     83.7469E-03
            1895            2203     84.7699E-03     83.7469E-03
            1890            2203     84.7699E-03     83.7469E-03
            1890            2204     82.8172E-03     80.0441E-03
            1896            2204     82.8172E-03     80.0441E-03
            1891            2204     82.8172E-03     80.0441E-03
            1895            2204     82.8172E-03     80.0441E-03
            1897            2205     81.7378E-03     79.5921E-03
            1896            2205     81.7378E-03     79.5921E-03
            1892            2205     81.7378E-03     79.5921E-03
            1891            2205     81.7378E-03     79.5921E-03
            1899            2206     82.2175E-03     95.6183E-03
            1894            2206     82.2175E-03     95.6183E-03
            1893            2206     82.2175E-03     95.6183E-03
            1898            2206     82.2175E-03     95.6183E-03
            1900            2207     76.8361E-03     90.9735E-03
            1894            2207     76.8361E-03     90.9735E-03
            1899            2207     76.8361E-03     90.9735E-03
            1895            2207     76.8361E-03     90.9735E-03
            1896            2208     76.9456E-03     83.3576E-03
            1895            2208     76.9456E-03     83.3576E-03
            1901            2208     76.9456E-03     83.3576E-03
            1900            2208     76.9456E-03     83.3576E-03
            1901            2209     79.2730E-03     80.0465E-03
            1896            2209     79.2730E-03     80.0465E-03
            1897            2209     79.2730E-03     80.0465E-03
            1902            2209     79.2730E-03     80.0465E-03
            1904            2210     84.5600E-03     83.4824E-03
            1903            2210     84.5600E-03     83.4824E-03
            1898            2210     84.5600E-03     83.4824E-03
            1899            2210     84.5600E-03     83.4824E-03
            1904            2211     87.1531E-03     87.9154E-03
            1900            2211     87.1531E-03     87.9154E-03
            1899            2211     87.1531E-03     87.9154E-03
            1905            2211     87.1531E-03     87.9154E-03
            1906            2212     83.0002E-03     83.0085E-03
            1900            2212     83.0002E-03     83.0085E-03
            1905            2212     83.0002E-03     83.0085E-03
            1901            2212     83.0002E-03     83.0085E-03
            1902            2213     81.6982E-03     81.1797E-03
            1901            2213     81.6982E-03     81.1797E-03
            1906            2213     81.6982E-03     81.1797E-03
            1907            2213     81.6982E-03     81.1797E-03
            1903            2214     98.5529E-03     95.1234E-03
            1904            2214     98.5529E-03     95.1234E-03
            1908            2214     98.5529E-03     95.1234E-03
            1909            2214     98.5529E-03     95.1234E-03
            1904            2215     96.1862E-03     94.0810E-03
            1909            2215     96.1862E-03     94.0810E-03
            1910            2215     96.1862E-03     94.0810E-03
            1905            2215     96.1862E-03     94.0810E-03
            1910            2216     90.5529E-03     89.0201E-03
            1911            2216     90.5529E-03     89.0201E-03
            1906            2216     90.5529E-03     89.0201E-03
            1905            2216     90.5529E-03     89.0201E-03
            1912            2217     84.8633E-03     83.5065E-03
            1906            2217     84.8633E-03     83.5065E-03
            1907            2217     84.8633E-03     83.5065E-03
            1911            2217     84.8633E-03     83.5065E-03
            1914            2218     107.127E-03     118.031E-03
            1913            2218     107.127E-03     118.031E-03
            1909            2218     107.127E-03     118.031E-03
            1908            2218     107.127E-03     118.031E-03
            1915            2219     98.9162E-03     110.081E-03
            1910            2219     98.9162E-03     110.081E-03
            1914            2219     98.9162E-03     110.081E-03
            1909            2219     98.9162E-03     110.081E-03
            1916            2220     93.4093E-03     99.2340E-03
            1910            2220     93.4093E-03     99.2340E-03
            1915            2220     93.4093E-03     99.2340E-03
            1911            2220     93.4093E-03     99.2340E-03
            1911            2221     85.9489E-03     88.3443E-03
            1917            2221     85.9489E-03     88.3443E-03
            1916            2221     85.9489E-03     88.3443E-03
            1912            2221     85.9489E-03     88.3443E-03
            1914            2222     138.755E-03     132.612E-03
            1919            2222     138.755E-03     132.612E-03
            1918            2222     138.755E-03     132.612E-03
            1913            2222     138.755E-03     132.612E-03
            1920            2223     125.394E-03     117.417E-03
            1915            2223     125.394E-03     117.417E-03
            1914            2223     125.394E-03     117.417E-03
            1919            2223     125.394E-03     117.417E-03
            1920            2224     109.615E-03     102.423E-03
            1916            2224     109.615E-03     102.423E-03
            1915            2224     109.615E-03     102.423E-03
            1921            2224     109.615E-03     102.423E-03
            1916            2225     92.2416E-03     90.6683E-03
            1921            2225     92.2416E-03     90.6683E-03
            1922            2225     92.2416E-03     90.6683E-03
            1917            2225     92.2416E-03     90.6683E-03
            1919            2226     155.102E-03     154.334E-03
            1923            2226     155.102E-03     154.334E-03
            1924            2226     155.102E-03     154.334E-03
            1918            2226     155.102E-03     154.334E-03
            1919            2227     132.627E-03     130.557E-03
            1920            2227     132.627E-03     130.557E-03
            1925            2227     132.627E-03     130.557E-03
            1924            2227     132.627E-03     130.557E-03
            1920            2228     112.924E-03     108.181E-03
            1921            2228     112.924E-03     108.181E-03
            1926            2228     112.924E-03     108.181E-03
            1925            2228     112.924E-03     108.181E-03
            1921            2229     92.9912E-03     90.0444E-03
            1922            2229     92.9912E-03     90.0444E-03
            1927            2229     92.9912E-03     90.0444E-03
            1926            2229     92.9912E-03     90.0444E-03
            1924            2230     137.988E-03     162.151E-03
            1928            2230     137.988E-03     162.151E-03
            1923            2230     137.988E-03     162.151E-03
            1929            2230     137.988E-03     162.151E-03
            1929            2231     118.870E-03     144.491E-03
            1924            2231     118.870E-03     144.491E-03
            1930            2231     118.870E-03     144.491E-03
            1925            2231     118.870E-03     144.491E-03
            1931            2232     101.819E-03     114.538E-03
            1925            2232     101.819E-03     114.538E-03
            1926            2232     101.819E-03     114.538E-03
            1930            2232     101.819E-03     114.538E-03
            1932            2233     88.3994E-03     91.2043E-03
            1927            2233     88.3994E-03     91.2043E-03
            1931            2233     88.3994E-03     91.2043E-03
            1926            2233     88.3994E-03     91.2043E-03
            1929            2234     147.695E-03     143.995E-03
            1934            2234     147.695E-03     143.995E-03
            1933            2234     147.695E-03     143.995E-03
            1928            2234     147.695E-03     143.995E-03
            1930            2235     136.649E-03     137.096E-03
            1935            2235     136.649E-03     137.096E-03
            1929            2235     136.649E-03     137.096E-03
            1934            2235     136.649E-03     137.096E-03
            1936            2236     112.614E-03     112.455E-03
            1935            2236     112.614E-03     112.455E-03
            1930            2236     112.614E-03     112.455E-03
            1931            2236     112.614E-03     112.455E-03
            1937            2237     93.2412E-03     92.1936E-03
            1936            2237     93.2412E-03     92.1936E-03
            1932            2237     93.2412E-03     92.1936E-03
            1931            2237     93.2412E-03     92.1936E-03
            1939            2238     157.176E-03     158.014E-03
            1938            2238     157.176E-03     158.014E-03
            1933            2238     157.176E-03     158.014E-03
            1934            2238     157.176E-03     158.014E-03
            1935            2239     145.302E-03     145.950E-03
            1934            2239     145.302E-03     145.950E-03
            1940            2239     145.302E-03     145.950E-03
            1939            2239     145.302E-03     145.950E-03
            1936            2240     123.025E-03     121.917E-03
            1940            2240     123.025E-03     121.917E-03
            1941            2240     123.025E-03     121.917E-03
            1935            2240     123.025E-03     121.917E-03
            1942            2241     98.3766E-03     97.0252E-03
            1937            2241     98.3766E-03     97.0252E-03
            1936            2241     98.3766E-03     97.0252E-03
            1941            2241     98.3766E-03     97.0252E-03
            1938            2242     169.186E-03     171.333E-03
            1943            2242     169.186E-03     171.333E-03
            1944            2242     169.186E-03     171.333E-03
            1939            2242     169.186E-03     171.333E-03
            1945            2243     150.441E-03     153.148E-03
            1940            2243     150.441E-03     153.148E-03
            1944            2243     150.441E-03     153.148E-03
            1939            2243     150.441E-03     153.148E-03
            1940            2244     128.310E-03     128.350E-03
            1941            2244     128.310E-03     128.350E-03
            1946            2244     128.310E-03     128.350E-03
            1945            2244     128.310E-03     128.350E-03
            1941            2245     102.379E-03     101.612E-03
            1942            2245     102.379E-03     101.612E-03
            1946            2245     102.379E-03     101.612E-03
            1947            2245     102.379E-03     101.612E-03
            1949            2246     181.919E-03     194.285E-03
            1944            2246     181.919E-03     194.285E-03
            1948            2246     181.919E-03     194.285E-03
            1943            2246     181.919E-03     194.285E-03
            1950            2247     158.747E-03     171.070E-03
            1949            2247     158.747E-03     171.070E-03
            1945            2247     158.747E-03     171.070E-03
            1944            2247     158.747E-03     171.070E-03
            1945            2248     133.989E-03     139.352E-03
            1951            2248     133.989E-03     139.352E-03
            1950            2248     133.989E-03     139.352E-03
            1946            2248     133.989E-03     139.352E-03
            1947            2249     103.929E-03     107.150E-03
            1946            2249     103.929E-03     107.150E-03
            1952            2249     103.929E-03     107.150E-03
            1951            2249     103.929E-03     107.150E-03
            1948            2250     216.690E-03     210.983E-03
            1949            2250     216.690E-03     210.983E-03
            1954            2250     216.690E-03     210.983E-03
            1953            2250     216.690E-03     210.983E-03
            1950            2251     190.522E-03     182.054E-03
            1949            2251     190.522E-03     182.054E-03
            1955            2251     190.522E-03     182.054E-03
            1954            2251     190.522E-03     182.054E-03
            1950            2252     154.903E-03     144.662E-03
            1956            2252     154.903E-03     144.662E-03
            1951            2252     154.903E-03     144.662E-03
            1955            2252     154.903E-03     144.662E-03
            1956            2253     112.459E-03     109.883E-03
            1951            2253     112.459E-03     109.883E-03
            1957            2253     112.459E-03     109.883E-03
            1952            2253     112.459E-03     109.883E-03
            1958            2254     235.281E-03     232.734E-03
            1954            2254     235.281E-03     232.734E-03
            1953            2254     235.281E-03     232.734E-03
            1959            2254     235.281E-03     232.734E-03
            1960            2255     198.879E-03     195.639E-03
            1955            2255     198.879E-03     195.639E-03
            1959            2255     198.879E-03     195.639E-03
            1954            2255     198.879E-03     195.639E-03
            1961            2256     157.147E-03     150.312E-03
            1955            2256     157.147E-03     150.312E-03
            1956            2256     157.147E-03     150.312E-03
            1960            2256     157.147E-03     150.312E-03
            1961            2257     112.053E-03     107.740E-03
            1957            2257     112.053E-03     107.740E-03
            1956            2257     112.053E-03     107.740E-03
            1962            2257     112.053E-03     107.740E-03
            1959            2258     208.688E-03     245.678E-03
            1963            2258     208.688E-03     245.678E-03
            1964            2258     208.688E-03     245.678E-03
            1958            2258     208.688E-03     245.678E-03
            1959            2259     174.613E-03     214.725E-03
            1960            2259     174.613E-03     214.725E-03
            1965            2259     174.613E-03     214.725E-03
            1964            2259     174.613E-03     214.725E-03
            1960            2260     137.671E-03     159.059E-03
            1965            2260     137.671E-03     159.059E-03
            1961            2260     137.671E-03     159.059E-03
            1966            2260     137.671E-03     159.059E-03
            1962            2261     103.232E-03     109.168E-03
            1961            2261     103.232E-03     109.168E-03
            1967            2261     103.232E-03     109.168E-03
            1966            2261     103.232E-03     109.168E-03
            1963            2262     223.813E-03     218.779E-03
            1968            2262     223.813E-03     218.779E-03
            1969            2262     223.813E-03     218.779E-03
            1964            2262     223.813E-03     218.779E-03
            1969            2263     199.699E-03     199.419E-03
            1970            2263     199.699E-03     199.419E-03
            1964            2263     199.699E-03     199.419E-03
            1965            2263     199.699E-03     199.419E-03
            1966            2264     154.552E-03     153.009E-03
            1971            2264     154.552E-03     153.009E-03
            1970            2264     154.552E-03     153.009E-03
            1965            2264     154.552E-03     153.009E-03
            1967            2265     111.212E-03     109.445E-03
            1972            2265     111.212E-03     109.445E-03
            1966            2265     111.212E-03     109.445E-03
            1971            2265     111.212E-03     109.445E-03
            1973            2266     231.857E-03     231.721E-03
            1969            2266     231.857E-03     231.721E-03
            1968            2266     231.857E-03     231.721E-03
            1974            2266     231.857E-03     231.721E-03
            1974            2267     208.939E-03     207.767E-03
            1969            2267     208.939E-03     207.767E-03
            1970            2267     208.939E-03     207.767E-03
            1975            2267     208.939E-03     207.767E-03
            1976            2268     167.787E-03     164.064E-03
            1970            2268     167.787E-03     164.064E-03
            1971            2268     167.787E-03     164.064E-03
            1975            2268     167.787E-03     164.064E-03
            1977            2269     118.704E-03     116.101E-03
            1971            2269     118.704E-03     116.101E-03
            1976            2269     118.704E-03     116.101E-03
            1972            2269     118.704E-03     116.101E-03
            1973            2270     239.582E-03     244.741E-03
            1978            2270     239.582E-03     244.741E-03
            1979            2270     239.582E-03     244.741E-03
            1974            2270     239.582E-03     244.741E-03
            1974            2271     208.902E-03     214.724E-03
            1980            2271     208.902E-03     214.724E-03
            1979            2271     208.902E-03     214.724E-03
            1975            2271     208.902E-03     214.724E-03
            1980            2272     170.421E-03     171.406E-03
            1976            2272     170.421E-03     171.406E-03
            1975            2272     170.421E-03     171.406E-03
            1981            2272     170.421E-03     171.406E-03
            1981            2273     122.671E-03     122.173E-03
            1976            2273     122.671E-03     122.173E-03
            1982            2273     122.671E-03     122.173E-03
            1977            2273     122.671E-03     122.173E-03
            1978            2274     252.481E-03     267.979E-03
            1983            2274     252.481E-03     267.979E-03
            1979            2274     252.481E-03     267.979E-03
            1984            2274     252.481E-03     267.979E-03
            1984            2275     217.448E-03     233.097E-03
            1979            2275     217.448E-03     233.097E-03
            1985            2275     217.448E-03     233.097E-03
            1980            2275     217.448E-03     233.097E-03
            1985            2276     176.526E-03     183.091E-03
            1986            2276     176.526E-03     183.091E-03
            1980            2276     176.526E-03     183.091E-03
            1981            2276     176.526E-03     183.091E-03
            1981            2277     124.235E-03     128.579E-03
            1982            2277     124.235E-03     128.579E-03
            1987            2277     124.235E-03     128.579E-03
            1986            2277     124.235E-03     128.579E-03
            1984            2278     292.158E-03     285.403E-03
            1989            2278     292.158E-03     285.403E-03
            1988            2278     292.158E-03     285.403E-03
            1983            2278     292.158E-03     285.403E-03
            1989            2279     255.278E-03     244.855E-03
            1990            2279     255.278E-03     244.855E-03
            1985            2279     255.278E-03     244.855E-03
            1984            2279     255.278E-03     244.855E-03
            1991            2280     201.677E-03     188.481E-03
            1985            2280     201.677E-03     188.481E-03
            1986            2280     201.677E-03     188.481E-03
            1990            2280     201.677E-03     188.481E-03
            1987            2281     134.421E-03     131.091E-03
            1991            2281     134.421E-03     131.091E-03
            1992            2281     134.421E-03     131.091E-03
            1986            2281     134.421E-03     131.091E-03
            1988            2282     312.597E-03     308.741E-03
            1989            2282     312.597E-03     308.741E-03
            1994            2282     312.597E-03     308.741E-03
            1993            2282     312.597E-03     308.741E-03
            1990            2283     263.674E-03     259.582E-03
            1994            2283     263.674E-03     259.582E-03
            1989            2283     263.674E-03     259.582E-03
            1995            2283     263.674E-03     259.582E-03
            1991            2284     202.177E-03     193.592E-03
            1995            2284     202.177E-03     193.592E-03
            1996            2284     202.177E-03     193.592E-03
            1990            2284     202.177E-03     193.592E-03
            1992            2285     132.532E-03     127.145E-03
            1996            2285     132.532E-03     127.145E-03
            1991            2285     132.532E-03     127.145E-03
            1997            2285     132.532E-03     127.145E-03
            1998            2286     278.032E-03     326.870E-03
            1994            2286     278.032E-03     326.870E-03
            1999            2286     278.032E-03     326.870E-03
            1993            2286     278.032E-03     326.870E-03
            1995            2287     229.484E-03     283.456E-03
            1999            2287     229.484E-03     283.456E-03
            2000            2287     229.484E-03     283.456E-03
            1994            2287     229.484E-03     283.456E-03
            1996            2288     175.390E-03     205.387E-03
            2000            2288     175.390E-03     205.387E-03
            1995            2288     175.390E-03     205.387E-03
            2001            2288     175.390E-03     205.387E-03
            2002            2289     120.237E-03     129.870E-03
            2001            2289     120.237E-03     129.870E-03
            1996            2289     120.237E-03     129.870E-03
            1997            2289     120.237E-03     129.870E-03
            2003            2290     299.349E-03     296.028E-03
            2004            2290     299.349E-03     296.028E-03
            1998            2290     299.349E-03     296.028E-03
            1999            2290     299.349E-03     296.028E-03
            1999            2291     264.725E-03     263.481E-03
            2004            2291     264.725E-03     263.481E-03
            2005            2291     264.725E-03     263.481E-03
            2000            2291     264.725E-03     263.481E-03
            2000            2292     201.158E-03     196.869E-03
            2001            2292     201.158E-03     196.869E-03
            2006            2292     201.158E-03     196.869E-03
            2005            2292     201.158E-03     196.869E-03
            2007            2293     133.137E-03     131.051E-03
            2006            2293     133.137E-03     131.051E-03
            2002            2293     133.137E-03     131.051E-03
            2001            2293     133.137E-03     131.051E-03
            2008            2294     312.595E-03     300.186E-03
            2009            2294     312.595E-03     300.186E-03
            2003            2294     312.595E-03     300.186E-03
            2004            2294     312.595E-03     300.186E-03
            2005            2295     277.438E-03     264.841E-03
            2010            2295     277.438E-03     264.841E-03
            2009            2295     277.438E-03     264.841E-03
            2004            2295     277.438E-03     264.841E-03
            2006            2296     216.998E-03     205.512E-03
            2011            2296     216.998E-03     205.512E-03
            2005            2296     216.998E-03     205.512E-03
            2010            2296     216.998E-03     205.512E-03
            2006            2297     142.695E-03     137.266E-03
            2011            2297     142.695E-03     137.266E-03
            2012            2297     142.695E-03     137.266E-03
            2007            2297     142.695E-03     137.266E-03
            2014            2298     300.305E-03     332.650E-03
            2013            2298     300.305E-03     332.650E-03
            2008            2298     300.305E-03     332.650E-03
            2009            2298     300.305E-03     332.650E-03
            2015            2299     258.122E-03     291.835E-03
            2014            2299     258.122E-03     291.835E-03
            2010            2299     258.122E-03     291.835E-03
            2009            2299     258.122E-03     291.835E-03
            2015            2300     208.173E-03     226.604E-03
            2011            2300     208.173E-03     226.604E-03
            2010            2300     208.173E-03     226.604E-03
            2016            2300     208.173E-03     226.604E-03
            2011            2301     140.055E-03     149.582E-03
            2016            2301     140.055E-03     149.582E-03
            2012            2301     140.055E-03     149.582E-03
            2017            2301     140.055E-03     149.582E-03
            2013            2302     354.510E-03     339.386E-03
            2018            2302     354.510E-03     339.386E-03
            2014            2302     354.510E-03     339.386E-03
            2019            2302     354.510E-03     339.386E-03
            2019            2303     309.413E-03     290.627E-03
            2015            2303     309.413E-03     290.627E-03
            2014            2303     309.413E-03     290.627E-03
            2020            2303     309.413E-03     290.627E-03
            2016            2304     240.856E-03     223.057E-03
            2015            2304     240.856E-03     223.057E-03
            2021            2304     240.856E-03     223.057E-03
            2020            2304     240.856E-03     223.057E-03
            2021            2305     153.263E-03     149.219E-03
            2016            2305     153.263E-03     149.219E-03
            2017            2305     153.263E-03     149.219E-03
            2022            2305     153.263E-03     149.219E-03
            2018            2306     373.047E-03     370.138E-03
            2019            2306     373.047E-03     370.138E-03
            2024            2306     373.047E-03     370.138E-03
            2023            2306     373.047E-03     370.138E-03
            2024            2307     315.235E-03     310.691E-03
            2020            2307     315.235E-03     310.691E-03
            2025            2307     315.235E-03     310.691E-03
            2019            2307     315.235E-03     310.691E-03
            2020            2308     239.510E-03     229.295E-03
            2026            2308     239.510E-03     229.295E-03
            2021            2308     239.510E-03     229.295E-03
            2025            2308     239.510E-03     229.295E-03
            2021            2309     150.408E-03     144.522E-03
            2026            2309     150.408E-03     144.522E-03
            2027            2309     150.408E-03     144.522E-03
            2022            2309     150.408E-03     144.522E-03
            2151            2384     356.608E-03     363.207E-03
            2146            2384     356.608E-03     363.207E-03
            2150            2384     356.608E-03     363.207E-03
            2145            2384     356.608E-03     363.207E-03
            2146            2385     320.750E-03     325.882E-03
            2151            2385     320.750E-03     325.882E-03
            2147            2385     320.750E-03     325.882E-03
            2152            2385     320.750E-03     325.882E-03
            2147            2386     268.237E-03     271.063E-03
            2148            2386     268.237E-03     271.063E-03
            2153            2386     268.237E-03     271.063E-03
            2152            2386     268.237E-03     271.063E-03
            2153            2387     219.072E-03     219.233E-03
            2154            2387     219.072E-03     219.233E-03
            2149            2387     219.072E-03     219.233E-03
            2148            2387     219.072E-03     219.233E-03
            2150            2388     331.302E-03     355.124E-03
            2156            2388     331.302E-03     355.124E-03
            2155            2388     331.302E-03     355.124E-03
            2151            2388     331.302E-03     355.124E-03
            2157            2389     297.046E-03     317.254E-03
            2151            2389     297.046E-03     317.254E-03
            2152            2389     297.046E-03     317.254E-03
            2156            2389     297.046E-03     317.254E-03
            2158            2390     260.669E-03     268.294E-03
            2153            2390     260.669E-03     268.294E-03
            2152            2390     260.669E-03     268.294E-03
            2157            2390     260.669E-03     268.294E-03
            2159            2391     226.417E-03     226.105E-03
            2154            2391     226.417E-03     226.105E-03
            2158            2391     226.417E-03     226.105E-03
            2153            2391     226.417E-03     226.105E-03
            2161            2392     334.347E-03     332.813E-03
            2155            2392     334.347E-03     332.813E-03
            2156            2392     334.347E-03     332.813E-03
            2160            2392     334.347E-03     332.813E-03
            2162            2393     298.805E-03     292.365E-03
            2157            2393     298.805E-03     292.365E-03
            2161            2393     298.805E-03     292.365E-03
            2156            2393     298.805E-03     292.365E-03
            2163            2394     258.747E-03     250.083E-03
            2162            2394     258.747E-03     250.083E-03
            2158            2394     258.747E-03     250.083E-03
            2157            2394     258.747E-03     250.083E-03
            2159            2395     216.784E-03     211.020E-03
            2164            2395     216.784E-03     211.020E-03
            2163            2395     216.784E-03     211.020E-03
            2158            2395     216.784E-03     211.020E-03
            2160            2396     303.938E-03     279.716E-03
            2161            2396     303.938E-03     279.716E-03
            2166            2396     303.938E-03     279.716E-03
            2165            2396     303.938E-03     279.716E-03
            2162            2397     289.308E-03     271.138E-03
            2161            2397     289.308E-03     271.138E-03
            2166            2397     289.308E-03     271.138E-03
            2167            2397     289.308E-03     271.138E-03
            2162            2398     249.959E-03     237.535E-03
            2163            2398     249.959E-03     237.535E-03
            2167            2398     249.959E-03     237.535E-03
            2168            2398     249.959E-03     237.535E-03
            2164            2399     213.475E-03     210.900E-03
            2168            2399     213.475E-03     210.900E-03
            2169            2399     213.475E-03     210.900E-03
            2163            2399     213.475E-03     210.900E-03
            2171            2400     204.148E-03     199.278E-03
            2170            2400     204.148E-03     199.278E-03
            2176            2400     204.148E-03     199.278E-03
            2175            2400     204.148E-03     199.278E-03
            2172            2401     223.005E-03     216.739E-03
            2171            2401     223.005E-03     216.739E-03
            2176            2401     223.005E-03     216.739E-03
            2177            2401     223.005E-03     216.739E-03
            2172            2402     240.769E-03     236.562E-03
            2178            2402     240.769E-03     236.562E-03
            2173            2402     240.769E-03     236.562E-03
            2177            2402     240.769E-03     236.562E-03
            2179            2403     261.940E-03     262.012E-03
            2174            2403     261.940E-03     262.012E-03
            2173            2403     261.940E-03     262.012E-03
            2178            2403     261.940E-03     262.012E-03
            2180            2404     202.118E-03     198.594E-03
            2175            2404     202.118E-03     198.594E-03
            2181            2404     202.118E-03     198.594E-03
            2176            2404     202.118E-03     198.594E-03
            2182            2405     216.898E-03     204.562E-03
            2181            2405     216.898E-03     204.562E-03
            2176            2405     216.898E-03     204.562E-03
            2177            2405     216.898E-03     204.562E-03
            2178            2406     235.186E-03     216.202E-03
            2183            2406     235.186E-03     216.202E-03
            2182            2406     235.186E-03     216.202E-03
            2177            2406     235.186E-03     216.202E-03
            2179            2407     235.147E-03     210.308E-03
            2183            2407     235.147E-03     210.308E-03
            2178            2407     235.147E-03     210.308E-03
            2184            2407     235.147E-03     210.308E-03
            2181            2408     193.662E-03     198.176E-03
            2185            2408     193.662E-03     198.176E-03
            2186            2408     193.662E-03     198.176E-03
            2180            2408     193.662E-03     198.176E-03
            2187            2409     191.964E-03     209.093E-03
            2182            2409     191.964E-03     209.093E-03
            2181            2409     191.964E-03     209.093E-03
            2186            2409     191.964E-03     209.093E-03
            2188            2410     189.771E-03     228.456E-03
            2182            2410     189.771E-03     228.456E-03
            2187            2410     189.771E-03     228.456E-03
            2183            2410     189.771E-03     228.456E-03
            2189            2411     200.343E-03     239.742E-03
            2183            2411     200.343E-03     239.742E-03
            2184            2411     200.343E-03     239.742E-03
            2188            2411     200.343E-03     239.742E-03
            2190            2412     202.809E-03     197.471E-03
            2185            2412     202.809E-03     197.471E-03
            2191            2412     202.809E-03     197.471E-03
            2186            2412     202.809E-03     197.471E-03
            2187            2413     203.881E-03     197.095E-03
            2191            2413     203.881E-03     197.095E-03
            2186            2413     203.881E-03     197.095E-03
            2192            2413     203.881E-03     197.095E-03
            2193            2414     206.179E-03     203.836E-03
            2188            2414     206.179E-03     203.836E-03
            2192            2414     206.179E-03     203.836E-03
            2187            2414     206.179E-03     203.836E-03
            2188            2415     229.295E-03     229.518E-03
            2189            2415     229.295E-03     229.518E-03
            2193            2415     229.295E-03     229.518E-03
            2194            2415     229.295E-03     229.518E-03
            2190            2416     200.827E-03     198.001E-03
            2195            2416     200.827E-03     198.001E-03
            2196            2416     200.827E-03     198.001E-03
            2191            2416     200.827E-03     198.001E-03
            2196            2417     196.552E-03     186.686E-03
            2192            2417     196.552E-03     186.686E-03
            2197            2417     196.552E-03     186.686E-03
            2191            2417     196.552E-03     186.686E-03
            2197            2418     190.507E-03     179.170E-03
            2192            2418     190.507E-03     179.170E-03
            2198            2418     190.507E-03     179.170E-03
            2193            2418     190.507E-03     179.170E-03
            2199            2419     193.787E-03     183.841E-03
            2193            2419     193.787E-03     183.841E-03
            2194            2419     193.787E-03     183.841E-03
            2198            2419     193.787E-03     183.841E-03
            2195            2420     192.015E-03     194.407E-03
            2201            2420     192.015E-03     194.407E-03
            2200            2420     192.015E-03     194.407E-03
            2196            2420     192.015E-03     194.407E-03
            2197            2421     173.733E-03     179.655E-03
            2202            2421     173.733E-03     179.655E-03
            2196            2421     173.733E-03     179.655E-03
            2201            2421     173.733E-03     179.655E-03
            2202            2422     147.406E-03     160.033E-03
            2203            2422     147.406E-03     160.033E-03
            2197            2422     147.406E-03     160.033E-03
            2198            2422     147.406E-03     160.033E-03
            2203            2423     133.285E-03     148.194E-03
            2198            2423     133.285E-03     148.194E-03
            2204            2423     133.285E-03     148.194E-03
            2199            2423     133.285E-03     148.194E-03
            2200            2424     190.531E-03     189.821E-03
            2205            2424     190.531E-03     189.821E-03
            2206            2424     190.531E-03     189.821E-03
            2201            2424     190.531E-03     189.821E-03
            2207            2425     167.363E-03     166.566E-03
            2201            2425     167.363E-03     166.566E-03
            2206            2425     167.363E-03     166.566E-03
            2202            2425     167.363E-03     166.566E-03
            2203            2426     133.630E-03     128.832E-03
            2208            2426     133.630E-03     128.832E-03
            2202            2426     133.630E-03     128.832E-03
            2207            2426     133.630E-03     128.832E-03
            2209            2427     105.394E-03     97.6012E-03
            2204            2427     105.394E-03     97.6012E-03
            2208            2427     105.394E-03     97.6012E-03
            2203            2427     105.394E-03     97.6012E-03
            2205            2428     188.496E-03     187.730E-03
            2211            2428     188.496E-03     187.730E-03
            2206            2428     188.496E-03     187.730E-03
            2210            2428     188.496E-03     187.730E-03
            2211            2429     158.534E-03     161.452E-03
            2206            2429     158.534E-03     161.452E-03
            2212            2429     158.534E-03     161.452E-03
            2207            2429     158.534E-03     161.452E-03
            2213            2430     116.460E-03     119.788E-03
            2212            2430     116.460E-03     119.788E-03
            2207            2430     116.460E-03     119.788E-03
            2208            2430     116.460E-03     119.788E-03
            2208            2431     67.4892E-03     70.8119E-03
            2209            2431     67.4892E-03     70.8119E-03
            2214            2431     67.4892E-03     70.8119E-03
            2213            2431     67.4892E-03     70.8119E-03
            2216            2432     187.238E-03     185.223E-03
            2210            2432     187.238E-03     185.223E-03
            2211            2432     187.238E-03     185.223E-03
            2215            2432     187.238E-03     185.223E-03
            2212            2433     153.025E-03     155.299E-03
            2211            2433     153.025E-03     155.299E-03
            2216            2433     153.025E-03     155.299E-03
            2217            2433     153.025E-03     155.299E-03
            2218            2434     109.403E-03     113.608E-03
            2217            2434     109.403E-03     113.608E-03
            2212            2434     109.403E-03     113.608E-03
            2213            2434     109.403E-03     113.608E-03
            2213            2435     55.1625E-03     65.0668E-03
            2218            2435     55.1625E-03     65.0668E-03
            2219            2435     55.1625E-03     65.0668E-03
            2214            2435     55.1625E-03     65.0668E-03
            2220            2436     151.947E-03     151.124E-03
            2221            2436     151.947E-03     151.124E-03
            2216            2436     151.947E-03     151.124E-03
            2215            2436     151.947E-03     151.124E-03
            2217            2437     127.657E-03     127.792E-03
            2221            2437     127.657E-03     127.792E-03
            2216            2437     127.657E-03     127.792E-03
            2222            2437     127.657E-03     127.792E-03
            2222            2438     95.0086E-03     95.6311E-03
            2223            2438     95.0086E-03     95.6311E-03
            2218            2438     95.0086E-03     95.6311E-03
            2217            2438     95.0086E-03     95.6311E-03
            2219            2439     56.8677E-03     61.8810E-03
            2224            2439     56.8677E-03     61.8810E-03
            2223            2439     56.8677E-03     61.8810E-03
            2218            2439     56.8677E-03     61.8810E-03
            2727            2828     103.381E-03     105.023E-03
            2722            2828     103.381E-03     105.023E-03
            2721            2828     103.381E-03     105.023E-03
            2726            2828     103.381E-03     105.023E-03
            2728            2829     193.795E-03     201.041E-03
            2727            2829     193.795E-03     201.041E-03
            2723            2829     193.795E-03     201.041E-03
            2722            2829     193.795E-03     201.041E-03
            2728            2830     270.504E-03     287.123E-03
            2723            2830     270.504E-03     287.123E-03
            2729            2830     270.504E-03     287.123E-03
            2724            2830     270.504E-03     287.123E-03
            2724            2831     320.722E-03     338.456E-03
            2725            2831     320.722E-03     338.456E-03
            2730            2831     320.722E-03     338.456E-03
            2729            2831     320.722E-03     338.456E-03
            2726            2832     115.354E-03     120.167E-03
            2727            2832     115.354E-03     120.167E-03
            2732            2832     115.354E-03     120.167E-03
            2731            2832     115.354E-03     120.167E-03
            2732            2833     218.824E-03     221.604E-03
            2728            2833     218.824E-03     221.604E-03
            2733            2833     218.824E-03     221.604E-03
            2727            2833     218.824E-03     221.604E-03
            2734            2834     301.018E-03     311.565E-03
            2733            2834     301.018E-03     311.565E-03
            2728            2834     301.018E-03     311.565E-03
            2729            2834     301.018E-03     311.565E-03
            2729            2835     346.764E-03     360.661E-03
            2734            2835     346.764E-03     360.661E-03
            2730            2835     346.764E-03     360.661E-03
            2735            2835     346.764E-03     360.661E-03
            2731            2836     138.593E-03     132.410E-03
            2737            2836     138.593E-03     132.410E-03
            2732            2836     138.593E-03     132.410E-03
            2736            2836     138.593E-03     132.410E-03
            2732            2837     260.171E-03     237.132E-03
            2738            2837     260.171E-03     237.132E-03
            2737            2837     260.171E-03     237.132E-03
            2733            2837     260.171E-03     237.132E-03
            2734            2838     351.831E-03     323.457E-03
            2738            2838     351.831E-03     323.457E-03
            2739            2838     351.831E-03     323.457E-03
            2733            2838     351.831E-03     323.457E-03
            2734            2839     404.609E-03     379.655E-03
            2739            2839     404.609E-03     379.655E-03
            2740            2839     404.609E-03     379.655E-03
            2735            2839     404.609E-03     379.655E-03
            2737            2840     137.917E-03     138.441E-03
            2741            2840     137.917E-03     138.441E-03
            2736            2840     137.917E-03     138.441E-03
            2742            2840     137.917E-03     138.441E-03
            2743            2841     247.978E-03     249.275E-03
            2737            2841     247.978E-03     249.275E-03
            2738            2841     247.978E-03     249.275E-03
            2742            2841     247.978E-03     249.275E-03
            2743            2842     339.254E-03     347.293E-03
            2744            2842     339.254E-03     347.293E-03
            2738            2842     339.254E-03     347.293E-03
            2739            2842     339.254E-03     347.293E-03
            2744            2843     416.529E-03     421.947E-03
            2739            2843     416.529E-03     421.947E-03
            2740            2843     416.529E-03     421.947E-03
            2745            2843     416.529E-03     421.947E-03
            2764            2854     256.819E-03     257.293E-03
            2765            2854     256.819E-03     257.293E-03
            2769            2854     256.819E-03     257.293E-03
            2770            2854     256.819E-03     257.293E-03
            2771            2855     238.396E-03     234.084E-03
            2765            2855     238.396E-03     234.084E-03
            2770            2855     238.396E-03     234.084E-03
            2766            2855     238.396E-03     234.084E-03
            2772            2856     221.751E-03     215.187E-03
            2766            2856     221.751E-03     215.187E-03
            2767            2856     221.751E-03     215.187E-03
            2771            2856     221.751E-03     215.187E-03
            2772            2857     203.616E-03     198.450E-03
            2767            2857     203.616E-03     198.450E-03
            2768            2857     203.616E-03     198.450E-03
            2773            2857     203.616E-03     198.450E-03
            2769            2858     232.014E-03     207.649E-03
            2775            2858     232.014E-03     207.649E-03
            2770            2858     232.014E-03     207.649E-03
            2774            2858     232.014E-03     207.649E-03
            2776            2859     233.400E-03     215.798E-03
            2775            2859     233.400E-03     215.798E-03
            2771            2859     233.400E-03     215.798E-03
            2770            2859     233.400E-03     215.798E-03
            2771            2860     215.959E-03     205.011E-03
            2776            2860     215.959E-03     205.011E-03
            2772            2860     215.959E-03     205.011E-03
            2777            2860     215.959E-03     205.011E-03
            2773            2861     201.856E-03     199.085E-03
            2772            2861     201.856E-03     199.085E-03
            2778            2861     201.856E-03     199.085E-03
            2777            2861     201.856E-03     199.085E-03
            2774            2862     198.474E-03     236.530E-03
            2780            2862     198.474E-03     236.530E-03
            2775            2862     198.474E-03     236.530E-03
            2779            2862     198.474E-03     236.530E-03
            2775            2863     189.930E-03     226.665E-03
            2781            2863     189.930E-03     226.665E-03
            2780            2863     189.930E-03     226.665E-03
            2776            2863     189.930E-03     226.665E-03
            2781            2864     193.131E-03     208.516E-03
            2777            2864     193.131E-03     208.516E-03
            2782            2864     193.131E-03     208.516E-03
            2776            2864     193.131E-03     208.516E-03
            2782            2865     194.635E-03     198.181E-03
            2777            2865     194.635E-03     198.181E-03
            2783            2865     194.635E-03     198.181E-03
            2778            2865     194.635E-03     198.181E-03
            2785            2866     225.779E-03     226.305E-03
            2784            2866     225.779E-03     226.305E-03
            2779            2866     225.779E-03     226.305E-03
            2780            2866     225.779E-03     226.305E-03
            2785            2867     205.442E-03     202.975E-03
            2780            2867     205.442E-03     202.975E-03
            2781            2867     205.442E-03     202.975E-03
            2786            2867     205.442E-03     202.975E-03
            2787            2868     204.389E-03     197.340E-03
            2786            2868     204.389E-03     197.340E-03
            2781            2868     204.389E-03     197.340E-03
            2782            2868     204.389E-03     197.340E-03
            2782            2869     203.384E-03     197.866E-03
            2783            2869     203.384E-03     197.866E-03
            2787            2869     203.384E-03     197.866E-03
            2788            2869     203.384E-03     197.866E-03
            2789            2870     191.394E-03     181.556E-03
            2790            2870     191.394E-03     181.556E-03
            2785            2870     191.394E-03     181.556E-03
            2784            2870     191.394E-03     181.556E-03
            2786            2871     190.876E-03     180.066E-03
            2790            2871     190.876E-03     180.066E-03
            2791            2871     190.876E-03     180.066E-03
            2785            2871     190.876E-03     180.066E-03
            2787            2872     197.833E-03     188.670E-03
            2786            2872     197.833E-03     188.670E-03
            2792            2872     197.833E-03     188.670E-03
            2791            2872     197.833E-03     188.670E-03
            2788            2873     201.725E-03     199.295E-03
            2793            2873     201.725E-03     199.295E-03
            2787            2873     201.725E-03     199.295E-03
            2792            2873     201.725E-03     199.295E-03
            2794            2874     132.662E-03     146.991E-03
            2789            2874     132.662E-03     146.991E-03
            2790            2874     132.662E-03     146.991E-03
            2795            2874     132.662E-03     146.991E-03
            2796            2875     150.501E-03     162.159E-03
            2791            2875     150.501E-03     162.159E-03
            2795            2875     150.501E-03     162.159E-03
            2790            2875     150.501E-03     162.159E-03
            2791            2876     177.177E-03     182.476E-03
            2797            2876     177.177E-03     182.476E-03
            2796            2876     177.177E-03     182.476E-03
            2792            2876     177.177E-03     182.476E-03
            2792            2877     194.019E-03     196.116E-03
            2798            2877     194.019E-03     196.116E-03
            2793            2877     194.019E-03     196.116E-03
            2797            2877     194.019E-03     196.116E-03
            2795            2878     106.030E-03     98.1781E-03
            2800            2878     106.030E-03     98.1781E-03
            2799            2878     106.030E-03     98.1781E-03
            2794            2878     106.030E-03     98.1781E-03
            2800            2879     138.202E-03     133.611E-03
            2795            2879     138.202E-03     133.611E-03
            2801            2879     138.202E-03     133.611E-03
            2796            2879     138.202E-03     133.611E-03
            2797            2880     171.641E-03     171.034E-03
            2801            2880     171.641E-03     171.034E-03
            2802            2880     171.641E-03     171.034E-03
            2796            2880     171.641E-03     171.034E-03
            2803            2881     192.948E-03     192.342E-03
            2802            2881     192.948E-03     192.342E-03
            2797            2881     192.948E-03     192.342E-03
            2798            2881     192.948E-03     192.342E-03
            2800            2882     72.0369E-03     73.4780E-03
            2804            2882     72.0369E-03     73.4780E-03
            2805            2882     72.0369E-03     73.4780E-03
            2799            2882     72.0369E-03     73.4780E-03
            2801            2883     123.111E-03     126.228E-03
            2805            2883     123.111E-03     126.228E-03
            2806            2883     123.111E-03     126.228E-03
            2800            2883     123.111E-03     126.228E-03
            2807            2884     163.781E-03     166.635E-03
            2801            2884     163.781E-03     166.635E-03
            2806            2884     163.781E-03     166.635E-03
            2802            2884     163.781E-03     166.635E-03
            2808            2885     191.370E-03     190.583E-03
            2802            2885     191.370E-03     190.583E-03
            2803            2885     191.370E-03     190.583E-03
            2807            2885     191.370E-03     190.583E-03
            2810            2886     63.1976E-03     70.8689E-03
            2804            2886     63.1976E-03     70.8689E-03
            2809            2886     63.1976E-03     70.8689E-03
            2805            2886     63.1976E-03     70.8689E-03
            2811            2887     117.275E-03     121.148E-03
            2806            2887     117.275E-03     121.148E-03
            2805            2887     117.275E-03     121.148E-03
            2810            2887     117.275E-03     121.148E-03
            2812            2888     158.777E-03     160.855E-03
            2806            2888     158.777E-03     160.855E-03
            2807            2888     158.777E-03     160.855E-03
            2811            2888     158.777E-03     160.855E-03
            2812            2889     190.337E-03     188.196E-03
            2813            2889     190.337E-03     188.196E-03
            2808            2889     190.337E-03     188.196E-03
            2807            2889     190.337E-03     188.196E-03
            2814            2890     64.5981E-03     68.9597E-03
            2815            2890     64.5981E-03     68.9597E-03
            2810            2890     64.5981E-03     68.9597E-03
            2809            2890     64.5981E-03     68.9597E-03
            2816            2891     101.869E-03     102.557E-03
            2810            2891     101.869E-03     102.557E-03
            2811            2891     101.869E-03     102.557E-03
            2815            2891     101.869E-03     102.557E-03
            2816            2892     132.669E-03     132.813E-03
            2817            2892     132.669E-03     132.813E-03
            2811            2892     132.669E-03     132.813E-03
            2812            2892     132.669E-03     132.813E-03
            2817            2893     154.617E-03     153.762E-03
            2813            2893     154.617E-03     153.762E-03
            2818            2893     154.617E-03     153.762E-03
            2812            2893     154.617E-03     153.762E-03
            2858            2912     353.377E-06     354.350E-06
            2853            2912     353.377E-06     354.350E-06
            2852            2912     353.377E-06     354.350E-06
            2857            2912     353.377E-06     354.350E-06
            2854            2913     307.499E-06     305.165E-06
            2853            2913     307.499E-06     305.165E-06
            2858            2913     307.499E-06     305.165E-06
            2859            2913     307.499E-06     305.165E-06
            2854            2914     322.513E-06     312.684E-06
            2860            2914     322.513E-06     312.684E-06
            2859            2914     322.513E-06     312.684E-06
            2855            2914     322.513E-06     312.684E-06
            2856            2915     339.957E-06     330.107E-06
            2860            2915     339.957E-06     330.107E-06
            2861            2915     339.957E-06     330.107E-06
            2855            2915     339.957E-06     330.107E-06
            2858            2916     277.191E-06     263.530E-06
            2863            2916     277.191E-06     263.530E-06
            2862            2916     277.191E-06     263.530E-06
            2857            2916     277.191E-06     263.530E-06
            2858            2917     276.255E-06     256.909E-06
            2864            2917     276.255E-06     256.909E-06
            2863            2917     276.255E-06     256.909E-06
            2859            2917     276.255E-06     256.909E-06
            2859            2918     309.256E-06     293.904E-06
            2860            2918     309.256E-06     293.904E-06
            2865            2918     309.256E-06     293.904E-06
            2864            2918     309.256E-06     293.904E-06
            2865            2919     336.417E-06     330.534E-06
            2866            2919     336.417E-06     330.534E-06
            2861            2919     336.417E-06     330.534E-06
            2860            2919     336.417E-06     330.534E-06
            2863            2920     167.354E-06     182.845E-06
            2862            2920     167.354E-06     182.845E-06
            2868            2920     167.354E-06     182.845E-06
            2867            2920     167.354E-06     182.845E-06
            2863            2921     203.026E-06     216.414E-06
            2864            2921     203.026E-06     216.414E-06
            2868            2921     203.026E-06     216.414E-06
            2869            2921     203.026E-06     216.414E-06
            2865            2922     273.948E-06     282.121E-06
            2870            2922     273.948E-06     282.121E-06
            2869            2922     273.948E-06     282.121E-06
            2864            2922     273.948E-06     282.121E-06
            2871            2923     322.925E-06     324.580E-06
            2870            2923     322.925E-06     324.580E-06
            2865            2923     322.925E-06     324.580E-06
            2866            2923     322.925E-06     324.580E-06
            2868            2924     121.635E-06     107.131E-06
            2867            2924     121.635E-06     107.131E-06
            2873            2924     121.635E-06     107.131E-06
            2872            2924     121.635E-06     107.131E-06
            2873            2925     179.248E-06     173.227E-06
            2868            2925     179.248E-06     173.227E-06
            2869            2925     179.248E-06     173.227E-06
            2874            2925     179.248E-06     173.227E-06
            2875            2926     265.472E-06     264.647E-06
            2870            2926     265.472E-06     264.647E-06
            2874            2926     265.472E-06     264.647E-06
            2869            2926     265.472E-06     264.647E-06
            2870            2927     323.845E-06     319.038E-06
            2876            2927     323.845E-06     319.038E-06
            2871            2927     323.845E-06     319.038E-06
            2875            2927     323.845E-06     319.038E-06
            2877            2928     96.2244E-06     119.610E-06
            2873            2928     96.2244E-06     119.610E-06
            2878            2928     96.2244E-06     119.610E-06
            2872            2928     96.2244E-06     119.610E-06
            2873            2929     162.156E-06     170.716E-06
            2874            2929     162.156E-06     170.716E-06
            2879            2929     162.156E-06     170.716E-06
            2878            2929     162.156E-06     170.716E-06
            2879            2930     256.526E-06     257.008E-06
            2880            2930     256.526E-06     257.008E-06
            2874            2930     256.526E-06     257.008E-06
            2875            2930     256.526E-06     257.008E-06
            2876            2931     321.485E-06     315.823E-06
            2881            2931     321.485E-06     315.823E-06
            2880            2931     321.485E-06     315.823E-06
            2875            2931     321.485E-06     315.823E-06
            3192            3177     339.957E-06     330.107E-06
            3187            3177     339.957E-06     330.107E-06
            3188            3177     339.957E-06     330.107E-06
            3193            3177     339.957E-06     330.107E-06
            3193            3178     322.513E-06     312.684E-06
            3189            3178     322.513E-06     312.684E-06
            3188            3178     322.513E-06     312.684E-06
            3194            3178     322.513E-06     312.684E-06
            3194            3179     307.499E-06     305.165E-06
            3190            3179     307.499E-06     305.165E-06
            3195            3179     307.499E-06     305.165E-06
            3189            3179     307.499E-06     305.165E-06
            3195            3180     353.377E-06     354.350E-06
            3196            3180     353.377E-06     354.350E-06
            3190            3180     353.377E-06     354.350E-06
            3191            3180     353.377E-06     354.350E-06
            3198            3181     336.417E-06     330.534E-06
            3193            3181     336.417E-06     330.534E-06
            3197            3181     336.417E-06     330.534E-06
            3192            3181     336.417E-06     330.534E-06
            3194            3182     309.256E-06     293.904E-06
            3198            3182     309.256E-06     293.904E-06
            3193            3182     309.256E-06     293.904E-06
            3199            3182     309.256E-06     293.904E-06
            3199            3183     276.255E-06     256.909E-06
            3194            3183     276.255E-06     256.909E-06
            3200            3183     276.255E-06     256.909E-06
            3195            3183     276.255E-06     256.909E-06
            3200            3184     277.191E-06     263.530E-06
            3201            3184     277.191E-06     263.530E-06
            3195            3184     277.191E-06     263.530E-06
            3196            3184     277.191E-06     263.530E-06
            3203            3185     322.925E-06     324.580E-06
            3202            3185     322.925E-06     324.580E-06
            3197            3185     322.925E-06     324.580E-06
            3198            3185     322.925E-06     324.580E-06
            3199            3186     273.948E-06     282.121E-06
            3203            3186     273.948E-06     282.121E-06
            3204            3186     273.948E-06     282.121E-06
            3198            3186     273.948E-06     282.121E-06
            3204            3187     203.026E-06     216.414E-06
            3199            3187     203.026E-06     216.414E-06
            3200            3187     203.026E-06     216.414E-06
            3205            3187     203.026E-06     216.414E-06
            3205            3188     167.354E-06     182.845E-06
            3200            3188     167.354E-06     182.845E-06
            3201            3188     167.354E-06     182.845E-06
            3206            3188     167.354E-06     182.845E-06
            3203            3189     323.845E-06     319.038E-06
            3208            3189     323.845E-06     319.038E-06
            3202            3189     323.845E-06     319.038E-06
            3207            3189     323.845E-06     319.038E-06
            3203            3190     265.472E-06     264.647E-06
            3204            3190     265.472E-06     264.647E-06
            3208            3190     265.472E-06     264.647E-06
            3209            3190     265.472E-06     264.647E-06
            3205            3191     179.248E-06     173.227E-06
            3209            3191     179.248E-06     173.227E-06
            3210            3191     179.248E-06     173.227E-06
            3204            3191     179.248E-06     173.227E-06
            3210            3192     121.635E-06     107.131E-06
            3206            3192     121.635E-06     107.131E-06
            3205            3192     121.635E-06     107.131E-06
            3211            3192     121.635E-06     107.131E-06
            3213            3193     321.485E-06     315.823E-06
            3212            3193     321.485E-06     315.823E-06
            3207            3193     321.485E-06     315.823E-06
            3208            3193     321.485E-06     315.823E-06
            3214            3194     256.526E-06     257.008E-06
            3208            3194     256.526E-06     257.008E-06
            3213            3194     256.526E-06     257.008E-06
            3209            3194     256.526E-06     257.008E-06
            3214            3195     162.156E-06     170.716E-06
            3209            3195     162.156E-06     170.716E-06
            3210            3195     162.156E-06     170.716E-06
            3215            3195     162.156E-06     170.716E-06
            3215            3196     96.2244E-06     119.610E-06
            3210            3196     96.2244E-06     119.610E-06
            3211            3196     96.2244E-06     119.610E-06
            3216            3196     96.2244E-06     119.610E-06


  Minimum                            80.5978E-06     97.4709E-06
      At Element                            1643            3211
            Node                             151             597

  Maximum                            454.827E-03     465.401E-03
      At Element                            2745            2745
            Node                             389              20

           Total                         372.097         377.418


Field Output reported at element nodes for region: CRJ700-1.Region_2
   Computation algorithm: EXTRAPOLATE_COMPUTE_AVERAGE
   Averaged at nodes
   Averaging regions: ODB_REGIONS

   Element Label      Node Label         S.Mises         S.Mises
                                          @Loc 1          @Loc 2
-----------------------------------------------------------------
            2030               2     20.3318E-03     20.1754E-03
             841               2     20.3318E-03     20.1754E-03
             981               3     328.414E-03     315.635E-03
            2129               3     328.414E-03     315.635E-03
             963               5     20.3215E-03     20.1652E-03
             859               5     20.3215E-03     20.1652E-03
             978               6     309.340E-06     312.898E-06
             856               9     309.340E-06     312.898E-06
            2225              11     315.962E-03     304.348E-03
             958              11     315.962E-03     304.348E-03
             861              13     20.1540E-03     20.0073E-03
            2028              13     20.1540E-03     20.0073E-03
             843              13     20.1540E-03     20.0073E-03
             961              13     20.1540E-03     20.0073E-03
             976              14     408.271E-06     406.589E-06
             858              14     408.271E-06     406.589E-06
            2227              15     73.7719E-03     74.2729E-03
             960              15     73.7719E-03     74.2729E-03
            2127              15     73.7719E-03     74.2729E-03
             979              15     73.7719E-03     74.2729E-03
            2839              16     394.132E-03     384.961E-03
             993              16     394.132E-03     384.961E-03
             991              17     128.120E-03     128.350E-03
            2239              17     128.120E-03     128.350E-03
            2837              17     128.120E-03     128.350E-03
            2132              17     128.120E-03     128.350E-03
            2130              20     402.569E-03     383.801E-03
            2237              20     402.569E-03     383.801E-03
            2242              21     274.402E-03     264.160E-03
            2851              21     274.402E-03     264.160E-03
            2882              23     279.179E-03     268.858E-03
            2142              23     279.179E-03     268.858E-03
            2849              25     207.226E-03     207.362E-03
            2884              25     207.226E-03     207.362E-03
            2144              25     207.226E-03     207.362E-03
            2240              25     207.226E-03     207.362E-03
            2746              26     50.5002E-03     50.1209E-03
            2912              26     50.5002E-03     50.1209E-03
            2272              28     50.4881E-03     50.1090E-03
            2821              28     50.4881E-03     50.1090E-03
            2914              29     50.1787E-03     49.8080E-03
            2819              29     50.1787E-03     49.8080E-03
            2748              29     50.1787E-03     49.8080E-03
            2270              29     50.1787E-03     49.8080E-03
            2836              31     309.294E-06     312.815E-06
            2763              33     408.326E-06     406.682E-06
            2834              33     408.326E-06     406.682E-06
            2761              34     309.294E-06     312.815E-06
            2033              51     48.5537E-03     48.6449E-03
            2030              51     48.5537E-03     48.6449E-03
            2036              52     55.7512E-03     57.0927E-03
            2033              52     55.7512E-03     57.0927E-03
            2036              53     55.8754E-03     57.4026E-03
            2039              53     55.8754E-03     57.4026E-03
            2039              54     62.8651E-03     63.1241E-03
            2042              54     62.8651E-03     63.1241E-03
            2042              55     72.9202E-03     72.5557E-03
            2045              55     72.9202E-03     72.5557E-03
            2048              56     86.2606E-03     85.9179E-03
            2045              56     86.2606E-03     85.9179E-03
            2051              57     105.755E-03     103.445E-03
            2048              57     105.755E-03     103.445E-03
            2054              58     94.8197E-03     90.1596E-03
            2051              58     94.8197E-03     90.1596E-03
            2057              59     83.4104E-03     83.2311E-03
            2054              59     83.4104E-03     83.2311E-03
            2057              60     101.484E-03     103.931E-03
            2060              60     101.484E-03     103.931E-03
            2060              61     116.557E-03     116.450E-03
            2063              61     116.557E-03     116.450E-03
            2063              62     133.570E-03     133.687E-03
            2066              62     133.570E-03     133.687E-03
            2069              63     155.067E-03     150.794E-03
            2066              63     155.067E-03     150.794E-03
            2069              64     141.856E-03     131.117E-03
            2072              64     141.856E-03     131.117E-03
            2075              65     129.468E-03     126.749E-03
            2072              65     129.468E-03     126.749E-03
            2075              66     150.932E-03     153.889E-03
            2078              66     150.932E-03     153.889E-03
            2078              67     167.826E-03     167.269E-03
            2081              67     167.826E-03     167.269E-03
            2081              68     183.183E-03     181.855E-03
            2084              68     183.183E-03     181.855E-03
            2084              69     200.692E-03     200.413E-03
            2087              69     200.692E-03     200.413E-03
            2087              70     222.229E-03     215.546E-03
            2090              70     222.229E-03     215.546E-03
            2090              71     206.303E-03     189.308E-03
            2093              71     206.303E-03     189.308E-03
            2096              72     192.315E-03     187.161E-03
            2093              72     192.315E-03     187.161E-03
            2096              73     215.709E-03     219.065E-03
            2099              73     215.709E-03     219.065E-03
            2102              74     233.352E-03     232.343E-03
            2099              74     233.352E-03     232.343E-03
            2102              75     249.199E-03     247.410E-03
            2105              75     249.199E-03     247.410E-03
            2105              76     267.212E-03     267.239E-03
            2108              76     267.212E-03     267.239E-03
            2111              77     288.699E-03     279.767E-03
            2108              77     288.699E-03     279.767E-03
            2111              78     271.945E-03     249.953E-03
            2114              78     271.945E-03     249.953E-03
            2114              79     259.617E-03     252.869E-03
            2117              79     259.617E-03     252.869E-03
            2120              80     284.816E-03     289.305E-03
            2117              80     284.816E-03     289.305E-03
            2123              81     302.059E-03     301.359E-03
            2120              81     302.059E-03     301.359E-03
            2123              82     321.474E-03     323.307E-03
            2126              82     321.474E-03     323.307E-03
            2126              83     343.339E-03     333.013E-03
            2129              83     343.339E-03     333.013E-03
             966             147     444.376E-06     437.576E-06
             963             147     444.376E-06     437.576E-06
             969             148     354.209E-06     356.879E-06
             966             148     354.209E-06     356.879E-06
             972             149     299.433E-06     303.238E-06
             969             149     299.433E-06     303.238E-06
             972             150     275.277E-06     283.074E-06
             975             150     275.277E-06     283.074E-06
             975             151     289.690E-06     296.401E-06
             978             151     289.690E-06     296.401E-06
             841             176     444.376E-06     437.576E-06
             844             176     444.376E-06     437.576E-06
             847             177     354.209E-06     356.879E-06
             844             177     354.209E-06     356.879E-06
             847             178     299.433E-06     303.238E-06
             850             178     299.433E-06     303.238E-06
             853             179     275.277E-06     283.074E-06
             850             179     275.277E-06     283.074E-06
             856             180     289.690E-06     296.401E-06
             853             180     289.690E-06     296.401E-06
             859             194     49.0203E-03     49.0673E-03
             862             194     49.0203E-03     49.0673E-03
             865             195     56.1797E-03     57.5870E-03
             862             195     56.1797E-03     57.5870E-03
             865             196     55.4675E-03     57.2155E-03
             868             196     55.4675E-03     57.2155E-03
             868             197     61.9593E-03     62.4249E-03
             871             197     61.9593E-03     62.4249E-03
             871             198     71.5780E-03     71.5388E-03
             874             198     71.5780E-03     71.5388E-03
             874             199     84.6708E-03     84.4473E-03
             877             199     84.6708E-03     84.4473E-03
             877             200     103.715E-03     101.880E-03
             880             200     103.715E-03     101.880E-03
             883             201     92.7766E-03     88.0877E-03
             880             201     92.7766E-03     88.0877E-03
             886             202     80.7066E-03     80.2775E-03
             883             202     80.7066E-03     80.2775E-03
             886             203     97.7254E-03     100.459E-03
             889             203     97.7254E-03     100.459E-03
             892             204     112.499E-03     112.652E-03
             889             204     112.499E-03     112.652E-03
             892             205     129.211E-03     129.487E-03
             895             205     129.211E-03     129.487E-03
             895             206     150.214E-03     146.525E-03
             898             206     150.214E-03     146.525E-03
             898             207     136.635E-03     125.978E-03
             901             207     136.635E-03     125.978E-03
             901             208     123.603E-03     120.548E-03
             904             208     123.603E-03     120.548E-03
             904             209     144.303E-03     147.624E-03
             907             209     144.303E-03     147.624E-03
             910             210     161.063E-03     160.647E-03
             907             210     161.063E-03     160.647E-03
             913             211     176.099E-03     175.127E-03
             910             211     176.099E-03     175.127E-03
             913             212     193.462E-03     193.270E-03
             916             212     193.462E-03     193.270E-03
             916             213     214.407E-03     208.438E-03
             919             213     214.407E-03     208.438E-03
             919             214     197.869E-03     181.071E-03
             922             214     197.869E-03     181.071E-03
             925             215     183.138E-03     177.696E-03
             922             215     183.138E-03     177.696E-03
             928             216     205.979E-03     209.740E-03
             925             216     205.979E-03     209.740E-03
             931             217     223.562E-03     222.730E-03
             928             217     223.562E-03     222.730E-03
             934             218     239.109E-03     237.721E-03
             931             218     239.109E-03     237.721E-03
             934             219     256.982E-03     257.127E-03
             937             219     256.982E-03     257.127E-03
             937             220     277.808E-03     269.692E-03
             940             220     277.808E-03     269.692E-03
             943             221     260.478E-03     238.814E-03
             940             221     260.478E-03     238.814E-03
             946             222     247.431E-03     240.525E-03
             943             222     247.431E-03     240.525E-03
             946             223     272.230E-03     277.108E-03
             949             223     272.230E-03     277.108E-03
             949             224     289.488E-03     289.105E-03
             952             224     289.488E-03     289.105E-03
             955             225     308.532E-03     310.599E-03
             952             225     308.532E-03     310.599E-03
             958             226     329.715E-03     320.274E-03
             955             226     329.715E-03     320.274E-03
             842             264     20.2689E-03     20.1175E-03
            2030             264     20.2689E-03     20.1175E-03
             841             264     20.2689E-03     20.1175E-03
            2029             264     20.2689E-03     20.1175E-03
             843             265     20.1805E-03     20.0339E-03
            2029             265     20.1805E-03     20.0339E-03
            2028             265     20.1805E-03     20.0339E-03
             842             265     20.1805E-03     20.0339E-03
             846             266     406.267E-06     413.955E-06
             964             266     406.267E-06     413.955E-06
             961             266     406.267E-06     413.955E-06
             843             266     406.267E-06     413.955E-06
             964             267     441.023E-06     451.388E-06
             846             267     441.023E-06     451.388E-06
             967             267     441.023E-06     451.388E-06
             849             267     441.023E-06     451.388E-06
             967             268     455.827E-06     461.004E-06
             852             268     455.827E-06     461.004E-06
             970             268     455.827E-06     461.004E-06
             849             268     455.827E-06     461.004E-06
             855             269     441.986E-06     441.785E-06
             973             269     441.986E-06     441.785E-06
             970             269     441.986E-06     441.785E-06
             852             269     441.986E-06     441.785E-06
             858             270     418.699E-06     417.148E-06
             855             270     418.699E-06     417.148E-06
             976             270     418.699E-06     417.148E-06
             973             270     418.699E-06     417.148E-06
             858             271     398.155E-06     397.349E-06
             857             271     398.155E-06     397.349E-06
             856             272     348.690E-06     350.504E-06
             857             272     348.690E-06     350.504E-06
             860             273     20.2606E-03     20.1093E-03
             962             273     20.2606E-03     20.1093E-03
             963             273     20.2606E-03     20.1093E-03
             859             273     20.2606E-03     20.1093E-03
             962             274     20.1764E-03     20.0299E-03
             861             274     20.1764E-03     20.0299E-03
             860             274     20.1764E-03     20.0299E-03
             961             274     20.1764E-03     20.0299E-03
             864             275     60.0726E-03     59.4143E-03
            2028             275     60.0726E-03     59.4143E-03
             861             275     60.0726E-03     59.4143E-03
            2031             275     60.0726E-03     59.4143E-03
             864             276     82.5319E-03     81.0300E-03
            2031             276     82.5319E-03     81.0300E-03
             867             276     82.5319E-03     81.0300E-03
            2034             276     82.5319E-03     81.0300E-03
            2034             277     86.9849E-03     85.2050E-03
            2037             277     86.9849E-03     85.2050E-03
             867             277     86.9849E-03     85.2050E-03
             870             277     86.9849E-03     85.2050E-03
            2040             278     90.0532E-03     89.1408E-03
             873             278     90.0532E-03     89.1408E-03
            2037             278     90.0532E-03     89.1408E-03
             870             278     90.0532E-03     89.1408E-03
             876             279     90.7372E-03     91.5046E-03
             873             279     90.7372E-03     91.5046E-03
            2043             279     90.7372E-03     91.5046E-03
            2040             279     90.7372E-03     91.5046E-03
             876             280     87.1994E-03     89.2533E-03
             879             280     87.1994E-03     89.2533E-03
            2043             280     87.1994E-03     89.2533E-03
            2046             280     87.1994E-03     89.2533E-03
            2049             281     79.3048E-03     80.8725E-03
             882             281     79.3048E-03     80.8725E-03
            2046             281     79.3048E-03     80.8725E-03
             879             281     79.3048E-03     80.8725E-03
             882             282     81.7075E-03     80.8658E-03
            2052             282     81.7075E-03     80.8658E-03
            2049             282     81.7075E-03     80.8658E-03
             885             282     81.7075E-03     80.8658E-03
             888             283     88.5781E-03     85.0909E-03
             885             283     88.5781E-03     85.0909E-03
            2052             283     88.5781E-03     85.0909E-03
            2055             283     88.5781E-03     85.0909E-03
            2055             284     90.5379E-03     87.0659E-03
             891             284     90.5379E-03     87.0659E-03
            2058             284     90.5379E-03     87.0659E-03
             888             284     90.5379E-03     87.0659E-03
             891             285     93.3269E-03     93.7744E-03
            2058             285     93.3269E-03     93.7744E-03
             894             285     93.3269E-03     93.7744E-03
            2061             285     93.3269E-03     93.7744E-03
             897             286     89.8519E-03     93.8799E-03
            2061             286     89.8519E-03     93.8799E-03
            2064             286     89.8519E-03     93.8799E-03
             894             286     89.8519E-03     93.8799E-03
            2064             287     79.7835E-03     82.8986E-03
            2067             287     79.7835E-03     82.8986E-03
             900             287     79.7835E-03     82.8986E-03
             897             287     79.7835E-03     82.8986E-03
             903             288     84.3763E-03     82.8744E-03
            2067             288     84.3763E-03     82.8744E-03
             900             288     84.3763E-03     82.8744E-03
            2070             288     84.3763E-03     82.8744E-03
             903             289     93.8483E-03     87.5440E-03
             906             289     93.8483E-03     87.5440E-03
            2070             289     93.8483E-03     87.5440E-03
            2073             289     93.8483E-03     87.5440E-03
             909             290     93.8881E-03     87.3230E-03
            2076             290     93.8881E-03     87.3230E-03
             906             290     93.8881E-03     87.3230E-03
            2073             290     93.8881E-03     87.3230E-03
            2079             291     96.5229E-03     94.1638E-03
            2076             291     96.5229E-03     94.1638E-03
             909             291     96.5229E-03     94.1638E-03
             912             291     96.5229E-03     94.1638E-03
             915             292     99.0312E-03     102.762E-03
            2082             292     99.0312E-03     102.762E-03
            2079             292     99.0312E-03     102.762E-03
             912             292     99.0312E-03     102.762E-03
            2082             293     94.6617E-03     102.155E-03
             918             293     94.6617E-03     102.155E-03
            2085             293     94.6617E-03     102.155E-03
             915             293     94.6617E-03     102.155E-03
             918             294     82.0738E-03     86.9755E-03
            2085             294     82.0738E-03     86.9755E-03
            2088             294     82.0738E-03     86.9755E-03
             921             294     82.0738E-03     86.9755E-03
            2088             295     89.6638E-03     87.3128E-03
            2091             295     89.6638E-03     87.3128E-03
             921             295     89.6638E-03     87.3128E-03
             924             295     89.6638E-03     87.3128E-03
             924             296     101.855E-03     93.0336E-03
            2094             296     101.855E-03     93.0336E-03
            2091             296     101.855E-03     93.0336E-03
             927             296     101.855E-03     93.0336E-03
             927             297     99.9118E-03     91.3679E-03
            2097             297     99.9118E-03     91.3679E-03
             930             297     99.9118E-03     91.3679E-03
            2094             297     99.9118E-03     91.3679E-03
             933             298     102.417E-03     99.8137E-03
            2100             298     102.417E-03     99.8137E-03
            2097             298     102.417E-03     99.8137E-03
             930             298     102.417E-03     99.8137E-03
             933             299     105.753E-03     111.172E-03
            2103             299     105.753E-03     111.172E-03
            2100             299     105.753E-03     111.172E-03
             936             299     105.753E-03     111.172E-03
             939             300     100.926E-03     111.075E-03
            2103             300     100.926E-03     111.075E-03
            2106             300     100.926E-03     111.075E-03
             936             300     100.926E-03     111.075E-03
            2106             301     86.2702E-03     92.2901E-03
             942             301     86.2702E-03     92.2901E-03
            2109             301     86.2702E-03     92.2901E-03
             939             301     86.2702E-03     92.2901E-03
            2112             302     97.7079E-03     94.5937E-03
             945             302     97.7079E-03     94.5937E-03
             942             302     97.7079E-03     94.5937E-03
            2109             302     97.7079E-03     94.5937E-03
            2112             303     111.880E-03     101.962E-03
             945             303     111.880E-03     101.962E-03
            2115             303     111.880E-03     101.962E-03
             948             303     111.880E-03     101.962E-03
             951             304     108.330E-03     100.836E-03
            2115             304     108.330E-03     100.836E-03
            2118             304     108.330E-03     100.836E-03
             948             304     108.330E-03     100.836E-03
            2121             305     112.007E-03     115.825E-03
             954             305     112.007E-03     115.825E-03
             951             305     112.007E-03     115.825E-03
            2118             305     112.007E-03     115.825E-03
            2124             306     106.579E-03     117.456E-03
             954             306     106.579E-03     117.456E-03
             957             306     106.579E-03     117.456E-03
            2121             306     106.579E-03     117.456E-03
            2124             307     90.5974E-03     96.6143E-03
             957             307     90.5974E-03     96.6143E-03
            2127             307     90.5974E-03     96.6143E-03
             960             307     90.5974E-03     96.6143E-03
             959             308     123.439E-03     120.928E-03
            2226             308     123.439E-03     120.928E-03
             960             308     123.439E-03     120.928E-03
            2227             308     123.439E-03     120.928E-03
            2226             309     246.905E-03     238.069E-03
             958             309     246.905E-03     238.069E-03
             959             309     246.905E-03     238.069E-03
            2225             309     246.905E-03     238.069E-03
             978             310     348.690E-06     350.504E-06
             977             310     348.690E-06     350.504E-06
             976             311     398.155E-06     397.349E-06
             977             311     398.155E-06     397.349E-06
            2128             312     133.899E-03     130.353E-03
            2127             312     133.899E-03     130.353E-03
             979             312     133.899E-03     130.353E-03
             980             312     133.899E-03     130.353E-03
             980             313     258.849E-03     248.931E-03
             981             313     258.849E-03     248.931E-03
            2129             313     258.849E-03     248.931E-03
            2128             313     258.849E-03     248.931E-03
             981             314     303.589E-03     292.493E-03
             984             314     303.589E-03     292.493E-03
             984             315     323.614E-03     317.997E-03
             987             315     323.614E-03     317.997E-03
             990             316     355.709E-03     365.331E-03
             987             316     355.709E-03     365.331E-03
             990             317     376.838E-03     371.429E-03
             993             317     376.838E-03     371.429E-03
            2838             318     312.734E-03     306.786E-03
            2839             318     312.734E-03     306.786E-03
             993             318     312.734E-03     306.786E-03
             992             318     312.734E-03     306.786E-03
            2837             319     178.499E-03     178.948E-03
             992             319     178.499E-03     178.948E-03
            2838             319     178.499E-03     178.948E-03
             991             319     178.499E-03     178.948E-03
             991             320     94.7240E-03     99.0794E-03
             988             320     94.7240E-03     99.0794E-03
            2236             320     94.7240E-03     99.0794E-03
            2239             320     94.7240E-03     99.0794E-03
            2233             321     111.771E-03     117.627E-03
             985             321     111.771E-03     117.627E-03
            2236             321     111.771E-03     117.627E-03
             988             321     111.771E-03     117.627E-03
             985             322     124.685E-03     123.899E-03
            2233             322     124.685E-03     123.899E-03
             982             322     124.685E-03     123.899E-03
            2230             322     124.685E-03     123.899E-03
             982             323     98.1408E-03     95.6019E-03
            2230             323     98.1408E-03     95.6019E-03
             979             323     98.1408E-03     95.6019E-03
            2227             323     98.1408E-03     95.6019E-03
            2237             389     379.264E-03     368.892E-03
            2234             389     379.264E-03     368.892E-03
            2234             390     355.898E-03     364.645E-03
            2231             390     355.898E-03     364.645E-03
            2228             391     320.606E-03     320.308E-03
            2231             391     320.606E-03     320.308E-03
            2225             392     293.516E-03     291.795E-03
            2228             392     293.516E-03     291.795E-03
            2842             393     355.333E-03     354.883E-03
            2839             393     355.333E-03     354.883E-03
            2845             394     341.004E-03     334.369E-03
            2842             394     341.004E-03     334.369E-03
            2848             395     346.524E-03     347.989E-03
            2845             395     346.524E-03     347.989E-03
            2851             396     278.866E-03     279.512E-03
            2848             396     278.866E-03     279.512E-03
            2133             420     362.321E-03     361.768E-03
            2130             420     362.321E-03     361.768E-03
            2136             421     347.325E-03     340.984E-03
            2133             421     347.325E-03     340.984E-03
            2136             422     353.384E-03     353.518E-03
            2139             422     353.384E-03     353.518E-03
            2142             423     283.948E-03     285.378E-03
            2139             423     283.948E-03     285.378E-03
            2130             432     320.270E-03     305.729E-03
            2237             432     320.270E-03     305.729E-03
            2238             432     320.270E-03     305.729E-03
            2131             432     320.270E-03     305.729E-03
            2131             433     184.275E-03     177.536E-03
            2132             433     184.275E-03     177.536E-03
            2239             433     184.275E-03     177.536E-03
            2238             433     184.275E-03     177.536E-03
            2837             434     201.589E-03     201.694E-03
            2840             434     201.589E-03     201.694E-03
            2135             434     201.589E-03     201.694E-03
            2132             434     201.589E-03     201.694E-03
            2843             435     205.546E-03     205.142E-03
            2840             435     205.546E-03     205.142E-03
            2135             435     205.546E-03     205.142E-03
            2138             435     205.546E-03     205.142E-03
            2843             436     192.185E-03     191.547E-03
            2846             436     192.185E-03     191.547E-03
            2141             436     192.185E-03     191.547E-03
            2138             436     192.185E-03     191.547E-03
            2141             437     219.748E-03     220.472E-03
            2846             437     219.748E-03     220.472E-03
            2849             437     219.748E-03     220.472E-03
            2144             437     219.748E-03     220.472E-03
            2143             438     222.760E-03     221.282E-03
            2144             438     222.760E-03     221.282E-03
            2883             438     222.760E-03     221.282E-03
            2884             438     222.760E-03     221.282E-03
            2882             439     258.425E-03     251.713E-03
            2883             439     258.425E-03     251.713E-03
            2142             439     258.425E-03     251.713E-03
            2143             439     258.425E-03     251.713E-03
            2882             444     289.124E-03     289.299E-03
            2885             444     289.124E-03     289.299E-03
            2888             445     227.200E-03     228.571E-03
            2885             445     227.200E-03     228.571E-03
            2888             446     237.652E-03     229.227E-03
            2891             446     237.652E-03     229.227E-03
            2894             447     258.295E-03     252.891E-03
            2891             447     258.295E-03     252.891E-03
            2897             448     210.861E-03     210.102E-03
            2894             448     210.861E-03     210.102E-03
            2897             449     178.461E-03     177.854E-03
            2900             449     178.461E-03     177.854E-03
            2900             450     154.454E-03     155.297E-03
            2903             450     154.454E-03     155.297E-03
            2906             451     138.278E-03     142.165E-03
            2903             451     138.278E-03     142.165E-03
            2906             452     139.139E-03     142.377E-03
            2909             452     139.139E-03     142.377E-03
            2909             453     121.554E-03     121.703E-03
            2912             453     121.554E-03     121.703E-03
            2240             468     220.675E-03     219.166E-03
            2849             468     220.675E-03     219.166E-03
            2850             468     220.675E-03     219.166E-03
            2241             468     220.675E-03     219.166E-03
            2242             469     254.575E-03     247.883E-03
            2851             469     254.575E-03     247.883E-03
            2241             469     254.575E-03     247.883E-03
            2850             469     254.575E-03     247.883E-03
            2242             470     284.246E-03     285.610E-03
            2245             470     284.246E-03     285.610E-03
            2245             471     224.043E-03     224.783E-03
            2248             471     224.043E-03     224.783E-03
            2251             472     235.057E-03     226.571E-03
            2248             472     235.057E-03     226.571E-03
            2254             473     255.773E-03     250.977E-03
            2251             473     255.773E-03     250.977E-03
            2254             474     208.903E-03     208.302E-03
            2257             474     208.903E-03     208.302E-03
            2257             475     176.807E-03     176.621E-03
            2260             475     176.807E-03     176.621E-03
            2260             476     153.344E-03     154.460E-03
            2263             476     153.344E-03     154.460E-03
            2266             477     137.791E-03     141.959E-03
            2263             477     137.791E-03     141.959E-03
            2266             478     139.689E-03     143.006E-03
            2269             478     139.689E-03     143.006E-03
            2269             479     122.140E-03     122.234E-03
            2272             479     122.140E-03     122.234E-03
            2820             480     50.3799E-03     50.0054E-03
            2271             480     50.3799E-03     50.0054E-03
            2821             480     50.3799E-03     50.0054E-03
            2272             480     50.3799E-03     50.0054E-03
            2271             481     50.2246E-03     49.8543E-03
            2820             481     50.2246E-03     49.8543E-03
            2819             481     50.2246E-03     49.8543E-03
            2270             481     50.2246E-03     49.8543E-03
            2270             482     149.836E-03     148.246E-03
            2914             482     149.836E-03     148.246E-03
            2267             482     149.836E-03     148.246E-03
            2911             482     149.836E-03     148.246E-03
            2267             483     205.281E-03     201.688E-03
            2264             483     205.281E-03     201.688E-03
            2908             483     205.281E-03     201.688E-03
            2911             483     205.281E-03     201.688E-03
            2908             484     216.215E-03     211.906E-03
            2261             484     216.215E-03     211.906E-03
            2264             484     216.215E-03     211.906E-03
            2905             484     216.215E-03     211.906E-03
            2905             485     223.967E-03     221.720E-03
            2261             485     223.967E-03     221.720E-03
            2902             485     223.967E-03     221.720E-03
            2258             485     223.967E-03     221.720E-03
            2902             486     225.515E-03     227.368E-03
            2258             486     225.515E-03     227.368E-03
            2255             486     225.515E-03     227.368E-03
            2899             486     225.515E-03     227.368E-03
            2899             487     216.412E-03     221.356E-03
            2252             487     216.412E-03     221.356E-03
            2255             487     216.412E-03     221.356E-03
            2896             487     216.412E-03     221.356E-03
            2893             488     197.073E-03     200.813E-03
            2896             488     197.073E-03     200.813E-03
            2249             488     197.073E-03     200.813E-03
            2252             488     197.073E-03     200.813E-03
            2890             489     204.973E-03     206.880E-03
            2893             489     204.973E-03     206.880E-03
            2249             489     204.973E-03     206.880E-03
            2246             489     204.973E-03     206.880E-03
            2243             490     211.369E-03     212.127E-03
            2246             490     211.369E-03     212.127E-03
            2887             490     211.369E-03     212.127E-03
            2890             490     211.369E-03     212.127E-03
            2887             491     189.366E-03     188.490E-03
            2240             491     189.366E-03     188.490E-03
            2243             491     189.366E-03     188.490E-03
            2884             491     189.366E-03     188.490E-03
            2824             562     443.121E-06     436.344E-06
            2821             562     443.121E-06     436.344E-06
            2824             563     353.456E-06     356.137E-06
            2827             563     353.456E-06     356.137E-06
            2827             564     299.014E-06     302.854E-06
            2830             564     299.014E-06     302.854E-06
            2833             565     275.252E-06     283.016E-06
            2830             565     275.252E-06     283.016E-06
            2836             566     289.769E-06     296.418E-06
            2833             566     289.769E-06     296.418E-06
            2913             587     50.3896E-03     50.0149E-03
            2912             587     50.3896E-03     50.0149E-03
            2747             587     50.3896E-03     50.0149E-03
            2746             587     50.3896E-03     50.0149E-03
            2914             588     50.2295E-03     49.8591E-03
            2748             588     50.2295E-03     49.8591E-03
            2913             588     50.2295E-03     49.8591E-03
            2747             588     50.2295E-03     49.8591E-03
            2748             589     406.157E-06     413.765E-06
            2822             589     406.157E-06     413.765E-06
            2751             589     406.157E-06     413.765E-06
            2819             589     406.157E-06     413.765E-06
            2751             590     440.722E-06     451.024E-06
            2754             590     440.722E-06     451.024E-06
            2825             590     440.722E-06     451.024E-06
            2822             590     440.722E-06     451.024E-06
            2825             591     455.565E-06     460.773E-06
            2828             591     455.565E-06     460.773E-06
            2754             591     455.565E-06     460.773E-06
            2757             591     455.565E-06     460.773E-06
            2828             592     441.800E-06     441.669E-06
            2760             592     441.800E-06     441.669E-06
            2831             592     441.800E-06     441.669E-06
            2757             592     441.800E-06     441.669E-06
            2831             593     418.646E-06     417.144E-06
            2760             593     418.646E-06     417.144E-06
            2834             593     418.646E-06     417.144E-06
            2763             593     418.646E-06     417.144E-06
            2762             594     398.202E-06     397.429E-06
            2763             594     398.202E-06     397.429E-06
            2762             595     348.686E-06     350.496E-06
            2761             595     348.686E-06     350.496E-06
            2758             596     289.769E-06     296.418E-06
            2761             596     289.769E-06     296.418E-06
            2758             597     275.252E-06     283.016E-06
            2755             597     275.252E-06     283.016E-06
            2752             598     299.014E-06     302.854E-06
            2755             598     299.014E-06     302.854E-06
            2752             599     353.456E-06     356.137E-06
            2749             599     353.456E-06     356.137E-06
            2746             600     443.121E-06     436.344E-06
            2749             600     443.121E-06     436.344E-06
            2836             605     348.686E-06     350.496E-06
            2835             605     348.686E-06     350.496E-06
            2834             606     398.202E-06     397.429E-06
            2835             606     398.202E-06     397.429E-06
             844            1357     433.689E-06     433.719E-06
             841            1357     433.689E-06     433.719E-06
             842            1357     433.689E-06     433.719E-06
             845            1357     433.689E-06     433.719E-06
             846            1358     414.635E-06     421.909E-06
             843            1358     414.635E-06     421.909E-06
             842            1358     414.635E-06     421.909E-06
             845            1358     414.635E-06     421.909E-06
             844            1359     388.548E-06     392.960E-06
             847            1359     388.548E-06     392.960E-06
             848            1359     388.548E-06     392.960E-06
             845            1359     388.548E-06     392.960E-06
             845            1360     431.955E-06     440.214E-06
             849            1360     431.955E-06     440.214E-06
             848            1360     431.955E-06     440.214E-06
             846            1360     431.955E-06     440.214E-06
             850            1361     350.743E-06     354.330E-06
             848            1361     350.743E-06     354.330E-06
             851            1361     350.743E-06     354.330E-06
             847            1361     350.743E-06     354.330E-06
             849            1362     428.940E-06     433.213E-06
             848            1362     428.940E-06     433.213E-06
             852            1362     428.940E-06     433.213E-06
             851            1362     428.940E-06     433.213E-06
             853            1363     339.523E-06     344.397E-06
             854            1363     339.523E-06     344.397E-06
             851            1363     339.523E-06     344.397E-06
             850            1363     339.523E-06     344.397E-06
             854            1364     422.877E-06     423.752E-06
             852            1364     422.877E-06     423.752E-06
             851            1364     422.877E-06     423.752E-06
             855            1364     422.877E-06     423.752E-06
             857            1365     344.431E-06     347.717E-06
             853            1365     344.431E-06     347.717E-06
             854            1365     344.431E-06     347.717E-06
             856            1365     344.431E-06     347.717E-06
             858            1366     408.935E-06     408.090E-06
             854            1366     408.935E-06     408.090E-06
             857            1366     408.935E-06     408.090E-06
             855            1366     408.935E-06     408.090E-06
             859            1367     53.8490E-03     53.4552E-03
             860            1367     53.8490E-03     53.4552E-03
             862            1367     53.8490E-03     53.4552E-03
             863            1367     53.8490E-03     53.4552E-03
             863            1368     59.3762E-03     58.6368E-03
             861            1368     59.3762E-03     58.6368E-03
             864            1368     59.3762E-03     58.6368E-03
             860            1368     59.3762E-03     58.6368E-03
             866            1369     67.5211E-03     67.4196E-03
             865            1369     67.5211E-03     67.4196E-03
             863            1369     67.5211E-03     67.4196E-03
             862            1369     67.5211E-03     67.4196E-03
             863            1370     80.7012E-03     79.1348E-03
             867            1370     80.7012E-03     79.1348E-03
             864            1370     80.7012E-03     79.1348E-03
             866            1370     80.7012E-03     79.1348E-03
             865            1371     67.7321E-03     68.2246E-03
             868            1371     67.7321E-03     68.2246E-03
             869            1371     67.7321E-03     68.2246E-03
             866            1371     67.7321E-03     68.2246E-03
             867            1372     83.4917E-03     82.1897E-03
             870            1372     83.4917E-03     82.1897E-03
             866            1372     83.4917E-03     82.1897E-03
             869            1372     83.4917E-03     82.1897E-03
             871            1373     70.8253E-03     71.3199E-03
             872            1373     70.8253E-03     71.3199E-03
             868            1373     70.8253E-03     71.3199E-03
             869            1373     70.8253E-03     71.3199E-03
             872            1374     84.8314E-03     84.6623E-03
             870            1374     84.8314E-03     84.6623E-03
             869            1374     84.8314E-03     84.6623E-03
             873            1374     84.8314E-03     84.6623E-03
             874            1375     76.9077E-03     77.0647E-03
             871            1375     76.9077E-03     77.0647E-03
             875            1375     76.9077E-03     77.0647E-03
             872            1375     76.9077E-03     77.0647E-03
             873            1376     86.4131E-03     87.0049E-03
             876            1376     86.4131E-03     87.0049E-03
             875            1376     86.4131E-03     87.0049E-03
             872            1376     86.4131E-03     87.0049E-03
             877            1377     86.3796E-03     86.6713E-03
             878            1377     86.3796E-03     86.6713E-03
             874            1377     86.3796E-03     86.6713E-03
             875            1377     86.3796E-03     86.6713E-03
             875            1378     87.5767E-03     88.9979E-03
             876            1378     87.5767E-03     88.9979E-03
             878            1378     87.5767E-03     88.9979E-03
             879            1378     87.5767E-03     88.9979E-03
             878            1379     95.6923E-03     95.2825E-03
             881            1379     95.6923E-03     95.2825E-03
             880            1379     95.6923E-03     95.2825E-03
             877            1379     95.6923E-03     95.2825E-03
             881            1380     83.3942E-03     84.7179E-03
             878            1380     83.3942E-03     84.7179E-03
             879            1380     83.3942E-03     84.7179E-03
             882            1380     83.3942E-03     84.7179E-03
             884            1381     89.7641E-03     86.0683E-03
             881            1381     89.7641E-03     86.0683E-03
             883            1381     89.7641E-03     86.0683E-03
             880            1381     89.7641E-03     86.0683E-03
             881            1382     84.1086E-03     82.3721E-03
             882            1382     84.1086E-03     82.3721E-03
             885            1382     84.1086E-03     82.3721E-03
             884            1382     84.1086E-03     82.3721E-03
             887            1383     86.3296E-03     84.0811E-03
             883            1383     86.3296E-03     84.0811E-03
             886            1383     86.3296E-03     84.0811E-03
             884            1383     86.3296E-03     84.0811E-03
             885            1384     90.1219E-03     86.3113E-03
             887            1384     90.1219E-03     86.3113E-03
             888            1384     90.1219E-03     86.3113E-03
             884            1384     90.1219E-03     86.3113E-03
             887            1385     96.2106E-03     97.7266E-03
             889            1385     96.2106E-03     97.7266E-03
             890            1385     96.2106E-03     97.7266E-03
             886            1385     96.2106E-03     97.7266E-03
             890            1386     92.4230E-03     90.7907E-03
             887            1386     92.4230E-03     90.7907E-03
             891            1386     92.4230E-03     90.7907E-03
             888            1386     92.4230E-03     90.7907E-03
             889            1387     105.231E-03     106.350E-03
             892            1387     105.231E-03     106.350E-03
             890            1387     105.231E-03     106.350E-03
             893            1387     105.231E-03     106.350E-03
             890            1388     95.3609E-03     96.6210E-03
             894            1388     95.3609E-03     96.6210E-03
             893            1388     95.3609E-03     96.6210E-03
             891            1388     95.3609E-03     96.6210E-03
             895            1389     117.332E-03     118.878E-03
             896            1389     117.332E-03     118.878E-03
             893            1389     117.332E-03     118.878E-03
             892            1389     117.332E-03     118.878E-03
             897            1390     97.3332E-03     100.770E-03
             893            1390     97.3332E-03     100.770E-03
             896            1390     97.3332E-03     100.770E-03
             894            1390     97.3332E-03     100.770E-03
             899            1391     127.392E-03     126.360E-03
             896            1391     127.392E-03     126.360E-03
             898            1391     127.392E-03     126.360E-03
             895            1391     127.392E-03     126.360E-03
             900            1392     91.8163E-03     94.2727E-03
             896            1392     91.8163E-03     94.2727E-03
             897            1392     91.8163E-03     94.2727E-03
             899            1392     91.8163E-03     94.2727E-03
             898            1393     120.099E-03     111.667E-03
             901            1393     120.099E-03     111.667E-03
             899            1393     120.099E-03     111.667E-03
             902            1393     120.099E-03     111.667E-03
             902            1394     93.5831E-03     89.8050E-03
             899            1394     93.5831E-03     89.8050E-03
             903            1394     93.5831E-03     89.8050E-03
             900            1394     93.5831E-03     89.8050E-03
             904            1395     116.777E-03     111.817E-03
             901            1395     116.777E-03     111.817E-03
             905            1395     116.777E-03     111.817E-03
             902            1395     116.777E-03     111.817E-03
             903            1396     101.501E-03     94.8695E-03
             906            1396     101.501E-03     94.8695E-03
             902            1396     101.501E-03     94.8695E-03
             905            1396     101.501E-03     94.8695E-03
             907            1397     129.369E-03     131.385E-03
             904            1397     129.369E-03     131.385E-03
             908            1397     129.369E-03     131.385E-03
             905            1397     129.369E-03     131.385E-03
             906            1398     103.659E-03     100.623E-03
             905            1398     103.659E-03     100.623E-03
             909            1398     103.659E-03     100.623E-03
             908            1398     103.659E-03     100.623E-03
             908            1399     140.411E-03     141.659E-03
             910            1399     140.411E-03     141.659E-03
             911            1399     140.411E-03     141.659E-03
             907            1399     140.411E-03     141.659E-03
             912            1400     107.526E-03     107.762E-03
             911            1400     107.526E-03     107.762E-03
             909            1400     107.526E-03     107.762E-03
             908            1400     107.526E-03     107.762E-03
             914            1401     151.295E-03     151.967E-03
             910            1401     151.295E-03     151.967E-03
             911            1401     151.295E-03     151.967E-03
             913            1401     151.295E-03     151.967E-03
             914            1402     112.041E-03     115.088E-03
             915            1402     112.041E-03     115.088E-03
             912            1402     112.041E-03     115.088E-03
             911            1402     112.041E-03     115.088E-03
             916            1403     164.802E-03     166.949E-03
             917            1403     164.802E-03     166.949E-03
             913            1403     164.802E-03     166.949E-03
             914            1403     164.802E-03     166.949E-03
             917            1404     114.655E-03     120.703E-03
             918            1404     114.655E-03     120.703E-03
             915            1404     114.655E-03     120.703E-03
             914            1404     114.655E-03     120.703E-03
             916            1405     174.149E-03     171.508E-03
             919            1405     174.149E-03     171.508E-03
             917            1405     174.149E-03     171.508E-03
             920            1405     174.149E-03     171.508E-03
             917            1406     107.153E-03     110.126E-03
             918            1406     107.153E-03     110.126E-03
             921            1406     107.153E-03     110.126E-03
             920            1406     107.153E-03     110.126E-03
             920            1407     164.230E-03     150.348E-03
             919            1407     164.230E-03     150.348E-03
             922            1407     164.230E-03     150.348E-03
             923            1407     164.230E-03     150.348E-03
             924            1408     109.311E-03     102.779E-03
             921            1408     109.311E-03     102.779E-03
             923            1408     109.311E-03     102.779E-03
             920            1408     109.311E-03     102.779E-03
             922            1409     160.785E-03     153.480E-03
             926            1409     160.785E-03     153.480E-03
             923            1409     160.785E-03     153.480E-03
             925            1409     160.785E-03     153.480E-03
             923            1410     119.336E-03     110.263E-03
             924            1410     119.336E-03     110.263E-03
             927            1410     119.336E-03     110.263E-03
             926            1410     119.336E-03     110.263E-03
             926            1411     175.388E-03     178.422E-03
             929            1411     175.388E-03     178.422E-03
             925            1411     175.388E-03     178.422E-03
             928            1411     175.388E-03     178.422E-03
             927            1412     121.347E-03     118.041E-03
             926            1412     121.347E-03     118.041E-03
             929            1412     121.347E-03     118.041E-03
             930            1412     121.347E-03     118.041E-03
             932            1413     187.427E-03     189.188E-03
             929            1413     187.427E-03     189.188E-03
             928            1413     187.427E-03     189.188E-03
             931            1413     187.427E-03     189.188E-03
             929            1414     125.691E-03     126.465E-03
             932            1414     125.691E-03     126.465E-03
             933            1414     125.691E-03     126.465E-03
             930            1414     125.691E-03     126.465E-03
             932            1415     199.007E-03     200.130E-03
             934            1415     199.007E-03     200.130E-03
             935            1415     199.007E-03     200.130E-03
             931            1415     199.007E-03     200.130E-03
             932            1416     131.043E-03     135.594E-03
             933            1416     131.043E-03     135.594E-03
             935            1416     131.043E-03     135.594E-03
             936            1416     131.043E-03     135.594E-03
             937            1417     213.197E-03     216.470E-03
             938            1417     213.197E-03     216.470E-03
             934            1417     213.197E-03     216.470E-03
             935            1417     213.197E-03     216.470E-03
             935            1418     133.843E-03     142.246E-03
             938            1418     133.843E-03     142.246E-03
             936            1418     133.843E-03     142.246E-03
             939            1418     133.843E-03     142.246E-03
             940            1419     221.753E-03     217.486E-03
             938            1419     221.753E-03     217.486E-03
             941            1419     221.753E-03     217.486E-03
             937            1419     221.753E-03     217.486E-03
             939            1420     124.528E-03     127.621E-03
             938            1420     124.528E-03     127.621E-03
             942            1420     124.528E-03     127.621E-03
             941            1420     124.528E-03     127.621E-03
             943            1421     210.594E-03     192.201E-03
             941            1421     210.594E-03     192.201E-03
             940            1421     210.594E-03     192.201E-03
             944            1421     210.594E-03     192.201E-03
             945            1422     127.850E-03     118.914E-03
             942            1422     127.850E-03     118.914E-03
             941            1422     127.850E-03     118.914E-03
             944            1422     127.850E-03     118.914E-03
             947            1423     209.816E-03     201.437E-03
             944            1423     209.816E-03     201.437E-03
             943            1423     209.816E-03     201.437E-03
             946            1423     209.816E-03     201.437E-03
             945            1424     140.753E-03     130.751E-03
             948            1424     140.753E-03     130.751E-03
             947            1424     140.753E-03     130.751E-03
             944            1424     140.753E-03     130.751E-03
             946            1425     226.425E-03     231.701E-03
             949            1425     226.425E-03     231.701E-03
             947            1425     226.425E-03     231.701E-03
             950            1425     226.425E-03     231.701E-03
             948            1426     142.878E-03     141.722E-03
             951            1426     142.878E-03     141.722E-03
             947            1426     142.878E-03     141.722E-03
             950            1426     142.878E-03     141.722E-03
             952            1427     238.224E-03     242.322E-03
             950            1427     238.224E-03     242.322E-03
             949            1427     238.224E-03     242.322E-03
             953            1427     238.224E-03     242.322E-03
             950            1428     147.626E-03     153.701E-03
             954            1428     147.626E-03     153.701E-03
             953            1428     147.626E-03     153.701E-03
             951            1428     147.626E-03     153.701E-03
             955            1429     252.996E-03     258.625E-03
             953            1429     252.996E-03     258.625E-03
             952            1429     252.996E-03     258.625E-03
             956            1429     252.996E-03     258.625E-03
             954            1430     150.094E-03     160.281E-03
             956            1430     150.094E-03     160.281E-03
             953            1430     150.094E-03     160.281E-03
             957            1430     150.094E-03     160.281E-03
             959            1431     260.971E-03     255.981E-03
             958            1431     260.971E-03     255.981E-03
             956            1431     260.971E-03     255.981E-03
             955            1431     260.971E-03     255.981E-03
             960            1432     139.311E-03     142.438E-03
             957            1432     139.311E-03     142.438E-03
             959            1432     139.311E-03     142.438E-03
             956            1432     139.311E-03     142.438E-03
             962            1433     414.635E-06     421.909E-06
             961            1433     414.635E-06     421.909E-06
             964            1433     414.635E-06     421.909E-06
             965            1433     414.635E-06     421.909E-06
             966            1434     433.689E-06     433.719E-06
             963            1434     433.689E-06     433.719E-06
             962            1434     433.689E-06     433.719E-06
             965            1434     433.689E-06     433.719E-06
             965            1435     431.955E-06     440.214E-06
             964            1435     431.955E-06     440.214E-06
             967            1435     431.955E-06     440.214E-06
             968            1435     431.955E-06     440.214E-06
             969            1436     388.548E-06     392.960E-06
             966            1436     388.548E-06     392.960E-06
             965            1436     388.548E-06     392.960E-06
             968            1436     388.548E-06     392.960E-06
             968            1437     428.940E-06     433.213E-06
             967            1437     428.940E-06     433.213E-06
             971            1437     428.940E-06     433.213E-06
             970            1437     428.940E-06     433.213E-06
             969            1438     350.743E-06     354.330E-06
             972            1438     350.743E-06     354.330E-06
             968            1438     350.743E-06     354.330E-06
             971            1438     350.743E-06     354.330E-06
             971            1439     422.877E-06     423.752E-06
             970            1439     422.877E-06     423.752E-06
             973            1439     422.877E-06     423.752E-06
             974            1439     422.877E-06     423.752E-06
             972            1440     339.523E-06     344.397E-06
             975            1440     339.523E-06     344.397E-06
             971            1440     339.523E-06     344.397E-06
             974            1440     339.523E-06     344.397E-06
             974            1441     408.935E-06     408.090E-06
             977            1441     408.935E-06     408.090E-06
             976            1441     408.935E-06     408.090E-06
             973            1441     408.935E-06     408.090E-06
             975            1442     344.431E-06     347.717E-06
             978            1442     344.431E-06     347.717E-06
             977            1442     344.431E-06     347.717E-06
             974            1442     344.431E-06     347.717E-06
             979            1443     148.986E-03     141.665E-03
             980            1443     148.986E-03     141.665E-03
             982            1443     148.986E-03     141.665E-03
             983            1443     148.986E-03     141.665E-03
             983            1444     250.147E-03     239.254E-03
             980            1444     250.147E-03     239.254E-03
             984            1444     250.147E-03     239.254E-03
             981            1444     250.147E-03     239.254E-03
             983            1445     171.417E-03     167.242E-03
             986            1445     171.417E-03     167.242E-03
             982            1445     171.417E-03     167.242E-03
             985            1445     171.417E-03     167.242E-03
             984            1446     270.230E-03     264.875E-03
             987            1446     270.230E-03     264.875E-03
             983            1446     270.230E-03     264.875E-03
             986            1446     270.230E-03     264.875E-03
             985            1447     171.482E-03     182.613E-03
             986            1447     171.482E-03     182.613E-03
             988            1447     171.482E-03     182.613E-03
             989            1447     171.482E-03     182.613E-03
             990            1448     293.283E-03     306.580E-03
             986            1448     293.283E-03     306.580E-03
             987            1448     293.283E-03     306.580E-03
             989            1448     293.283E-03     306.580E-03
             988            1449     157.134E-03     165.099E-03
             992            1449     157.134E-03     165.099E-03
             991            1449     157.134E-03     165.099E-03
             989            1449     157.134E-03     165.099E-03
             992            1450     299.069E-03     300.364E-03
             990            1450     299.069E-03     300.364E-03
             993            1450     299.069E-03     300.364E-03
             989            1450     299.069E-03     300.364E-03
            2032            2310     59.2792E-03     58.6019E-03
            2029            2310     59.2792E-03     58.6019E-03
            2028            2310     59.2792E-03     58.6019E-03
            2031            2310     59.2792E-03     58.6019E-03
            2030            2311     53.5209E-03     53.2253E-03
            2033            2311     53.5209E-03     53.2253E-03
            2029            2311     53.5209E-03     53.2253E-03
            2032            2311     53.5209E-03     53.2253E-03
            2031            2312     80.5471E-03     79.1541E-03
            2034            2312     80.5471E-03     79.1541E-03
            2035            2312     80.5471E-03     79.1541E-03
            2032            2312     80.5471E-03     79.1541E-03
            2032            2313     67.1608E-03     67.1792E-03
            2033            2313     67.1608E-03     67.1792E-03
            2036            2313     67.1608E-03     67.1792E-03
            2035            2313     67.1608E-03     67.1792E-03
            2038            2314     83.5505E-03     82.3128E-03
            2035            2314     83.5505E-03     82.3128E-03
            2037            2314     83.5505E-03     82.3128E-03
            2034            2314     83.5505E-03     82.3128E-03
            2038            2315     67.9966E-03     68.3819E-03
            2036            2315     67.9966E-03     68.3819E-03
            2035            2315     67.9966E-03     68.3819E-03
            2039            2315     67.9966E-03     68.3819E-03
            2041            2316     85.1889E-03     84.8347E-03
            2040            2316     85.1889E-03     84.8347E-03
            2037            2316     85.1889E-03     84.8347E-03
            2038            2316     85.1889E-03     84.8347E-03
            2039            2317     71.5539E-03     71.8108E-03
            2038            2317     71.5539E-03     71.8108E-03
            2041            2317     71.5539E-03     71.8108E-03
            2042            2317     71.5539E-03     71.8108E-03
            2043            2318     86.9593E-03     87.3572E-03
            2041            2318     86.9593E-03     87.3572E-03
            2040            2318     86.9593E-03     87.3572E-03
            2044            2318     86.9593E-03     87.3572E-03
            2041            2319     77.9766E-03     77.8399E-03
            2042            2319     77.9766E-03     77.8399E-03
            2044            2319     77.9766E-03     77.8399E-03
            2045            2319     77.9766E-03     77.8399E-03
            2047            2320     88.2047E-03     89.5734E-03
            2046            2320     88.2047E-03     89.5734E-03
            2044            2320     88.2047E-03     89.5734E-03
            2043            2320     88.2047E-03     89.5734E-03
            2048            2321     87.6680E-03     87.8294E-03
            2045            2321     87.6680E-03     87.8294E-03
            2044            2321     87.6680E-03     87.8294E-03
            2047            2321     87.6680E-03     87.8294E-03
            2047            2322     84.1536E-03     85.3217E-03
            2050            2322     84.1536E-03     85.3217E-03
            2049            2322     84.1536E-03     85.3217E-03
            2046            2322     84.1536E-03     85.3217E-03
            2048            2323     97.2856E-03     96.5469E-03
            2050            2323     97.2856E-03     96.5469E-03
            2051            2323     97.2856E-03     96.5469E-03
            2047            2323     97.2856E-03     96.5469E-03
            2050            2324     84.8872E-03     83.1096E-03
            2053            2324     84.8872E-03     83.1096E-03
            2049            2324     84.8872E-03     83.1096E-03
            2052            2324     84.8872E-03     83.1096E-03
            2050            2325     91.3224E-03     87.6712E-03
            2054            2325     91.3224E-03     87.6712E-03
            2051            2325     91.3224E-03     87.6712E-03
            2053            2325     91.3224E-03     87.6712E-03
            2052            2326     91.0789E-03     87.5951E-03
            2053            2326     91.0789E-03     87.5951E-03
            2056            2326     91.0789E-03     87.5951E-03
            2055            2326     91.0789E-03     87.5951E-03
            2054            2327     88.3516E-03     86.4887E-03
            2053            2327     88.3516E-03     86.4887E-03
            2056            2327     88.3516E-03     86.4887E-03
            2057            2327     88.3516E-03     86.4887E-03
            2058            2328     93.9854E-03     92.5018E-03
            2059            2328     93.9854E-03     92.5018E-03
            2055            2328     93.9854E-03     92.5018E-03
            2056            2328     93.9854E-03     92.5018E-03
            2057            2329     99.2646E-03     100.695E-03
            2060            2329     99.2646E-03     100.695E-03
            2059            2329     99.2646E-03     100.695E-03
            2056            2329     99.2646E-03     100.695E-03
            2061            2330     97.4491E-03     98.6319E-03
            2062            2330     97.4491E-03     98.6319E-03
            2058            2330     97.4491E-03     98.6319E-03
            2059            2330     97.4491E-03     98.6319E-03
            2063            2331     108.781E-03     109.679E-03
            2059            2331     108.781E-03     109.679E-03
            2062            2331     108.781E-03     109.679E-03
            2060            2331     108.781E-03     109.679E-03
            2062            2332     99.6701E-03     102.995E-03
            2061            2332     99.6701E-03     102.995E-03
            2065            2332     99.6701E-03     102.995E-03
            2064            2332     99.6701E-03     102.995E-03
            2062            2333     121.210E-03     122.594E-03
            2066            2333     121.210E-03     122.594E-03
            2063            2333     121.210E-03     122.594E-03
            2065            2333     121.210E-03     122.594E-03
            2065            2334     94.3879E-03     96.3698E-03
            2068            2334     94.3879E-03     96.3698E-03
            2064            2334     94.3879E-03     96.3698E-03
            2067            2334     94.3879E-03     96.3698E-03
            2069            2335     131.669E-03     130.043E-03
            2065            2335     131.669E-03     130.043E-03
            2066            2335     131.669E-03     130.043E-03
            2068            2335     131.669E-03     130.043E-03
            2068            2336     96.0371E-03     92.0018E-03
            2071            2336     96.0371E-03     92.0018E-03
            2067            2336     96.0371E-03     92.0018E-03
            2070            2336     96.0371E-03     92.0018E-03
            2072            2337     124.391E-03     115.814E-03
            2068            2337     124.391E-03     115.814E-03
            2069            2337     124.391E-03     115.814E-03
            2071            2337     124.391E-03     115.814E-03
            2074            2338     104.156E-03     97.9330E-03
            2073            2338     104.156E-03     97.9330E-03
            2070            2338     104.156E-03     97.9330E-03
            2071            2338     104.156E-03     97.9330E-03
            2071            2339     121.567E-03     117.090E-03
            2074            2339     121.567E-03     117.090E-03
            2075            2339     121.567E-03     117.090E-03
            2072            2339     121.567E-03     117.090E-03
            2074            2340     107.181E-03     104.511E-03
            2076            2340     107.181E-03     104.511E-03
            2077            2340     107.181E-03     104.511E-03
            2073            2340     107.181E-03     104.511E-03
            2078            2341     135.200E-03     137.183E-03
            2075            2341     135.200E-03     137.183E-03
            2077            2341     135.200E-03     137.183E-03
            2074            2341     135.200E-03     137.183E-03
            2080            2342     111.647E-03     111.866E-03
            2076            2342     111.647E-03     111.866E-03
            2077            2342     111.647E-03     111.866E-03
            2079            2342     111.647E-03     111.866E-03
            2077            2343     146.685E-03     147.764E-03
            2078            2343     146.685E-03     147.764E-03
            2081            2343     146.685E-03     147.764E-03
            2080            2343     146.685E-03     147.764E-03
            2082            2344     116.555E-03     119.465E-03
            2079            2344     116.555E-03     119.465E-03
            2080            2344     116.555E-03     119.465E-03
            2083            2344     116.555E-03     119.465E-03
            2084            2345     157.911E-03     158.315E-03
            2081            2345     157.911E-03     158.315E-03
            2083            2345     157.911E-03     158.315E-03
            2080            2345     157.911E-03     158.315E-03
            2086            2346     119.373E-03     125.182E-03
            2085            2346     119.373E-03     125.182E-03
            2082            2346     119.373E-03     125.182E-03
            2083            2346     119.373E-03     125.182E-03
            2087            2347     171.641E-03     173.622E-03
            2086            2347     171.641E-03     173.622E-03
            2083            2347     171.641E-03     173.622E-03
            2084            2347     171.641E-03     173.622E-03
            2089            2348     112.116E-03     114.324E-03
            2085            2348     112.116E-03     114.324E-03
            2086            2348     112.116E-03     114.324E-03
            2088            2348     112.116E-03     114.324E-03
            2086            2349     181.364E-03     177.958E-03
            2087            2349     181.364E-03     177.958E-03
            2090            2349     181.364E-03     177.958E-03
            2089            2349     181.364E-03     177.958E-03
            2092            2350     114.030E-03     107.062E-03
            2089            2350     114.030E-03     107.062E-03
            2091            2350     114.030E-03     107.062E-03
            2088            2350     114.030E-03     107.062E-03
            2092            2351     171.534E-03     157.369E-03
            2093            2351     171.534E-03     157.369E-03
            2090            2351     171.534E-03     157.369E-03
            2089            2351     171.534E-03     157.369E-03
            2092            2352     124.330E-03     115.757E-03
            2094            2352     124.330E-03     115.757E-03
            2095            2352     124.330E-03     115.757E-03
            2091            2352     124.330E-03     115.757E-03
            2095            2353     168.752E-03     161.935E-03
            2096            2353     168.752E-03     161.935E-03
            2093            2353     168.752E-03     161.935E-03
            2092            2353     168.752E-03     161.935E-03
            2094            2354     127.545E-03     124.781E-03
            2095            2354     127.545E-03     124.781E-03
            2098            2354     127.545E-03     124.781E-03
            2097            2354     127.545E-03     124.781E-03
            2095            2355     184.436E-03     187.435E-03
            2098            2355     184.436E-03     187.435E-03
            2099            2355     184.436E-03     187.435E-03
            2096            2355     184.436E-03     187.435E-03
            2098            2356     132.563E-03     133.432E-03
            2101            2356     132.563E-03     133.432E-03
            2100            2356     132.563E-03     133.432E-03
            2097            2356     132.563E-03     133.432E-03
            2099            2357     196.866E-03     198.432E-03
            2101            2357     196.866E-03     198.432E-03
            2098            2357     196.866E-03     198.432E-03
            2102            2357     196.866E-03     198.432E-03
            2100            2358     138.320E-03     142.727E-03
            2104            2358     138.320E-03     142.727E-03
            2103            2358     138.320E-03     142.727E-03
            2101            2358     138.320E-03     142.727E-03
            2102            2359     208.756E-03     209.585E-03
            2101            2359     208.756E-03     209.585E-03
            2105            2359     208.756E-03     209.585E-03
            2104            2359     208.756E-03     209.585E-03
            2107            2360     141.329E-03     149.327E-03
            2103            2360     141.329E-03     149.327E-03
            2104            2360     141.329E-03     149.327E-03
            2106            2360     141.329E-03     149.327E-03
            2107            2361     223.146E-03     226.211E-03
            2108            2361     223.146E-03     226.211E-03
            2105            2361     223.146E-03     226.211E-03
            2104            2361     223.146E-03     226.211E-03
            2109            2362     132.284E-03     134.287E-03
            2106            2362     132.284E-03     134.287E-03
            2107            2362     132.284E-03     134.287E-03
            2110            2362     132.284E-03     134.287E-03
            2111            2363     232.043E-03     226.862E-03
            2107            2363     232.043E-03     226.862E-03
            2110            2363     232.043E-03     226.862E-03
            2108            2363     232.043E-03     226.862E-03
            2109            2364     135.093E-03     125.551E-03
            2113            2364     135.093E-03     125.551E-03
            2110            2364     135.093E-03     125.551E-03
            2112            2364     135.093E-03     125.551E-03
            2111            2365     220.852E-03     202.055E-03
            2113            2365     220.852E-03     202.055E-03
            2110            2365     220.852E-03     202.055E-03
            2114            2365     220.852E-03     202.055E-03
            2112            2366     148.163E-03     138.767E-03
            2116            2366     148.163E-03     138.767E-03
            2113            2366     148.163E-03     138.767E-03
            2115            2366     148.163E-03     138.767E-03
            2117            2367     220.745E-03     212.816E-03
            2116            2367     220.745E-03     212.816E-03
            2114            2367     220.745E-03     212.816E-03
            2113            2367     220.745E-03     212.816E-03
            2115            2368     151.848E-03     151.309E-03
            2116            2368     151.848E-03     151.309E-03
            2119            2368     151.848E-03     151.309E-03
            2118            2368     151.848E-03     151.309E-03
            2117            2369     238.494E-03     243.701E-03
            2116            2369     238.494E-03     243.701E-03
            2119            2369     238.494E-03     243.701E-03
            2120            2369     238.494E-03     243.701E-03
            2118            2370     157.479E-03     163.729E-03
            2119            2370     157.479E-03     163.729E-03
            2121            2370     157.479E-03     163.729E-03
            2122            2370     157.479E-03     163.729E-03
            2119            2371     250.646E-03     254.515E-03
            2123            2371     250.646E-03     254.515E-03
            2122            2371     250.646E-03     254.515E-03
            2120            2371     250.646E-03     254.515E-03
            2124            2372     160.222E-03     169.967E-03
            2122            2372     160.222E-03     169.967E-03
            2121            2372     160.222E-03     169.967E-03
            2125            2372     160.222E-03     169.967E-03
            2125            2373     265.744E-03     271.120E-03
            2122            2373     265.744E-03     271.120E-03
            2123            2373     265.744E-03     271.120E-03
            2126            2373     265.744E-03     271.120E-03
            2125            2374     149.796E-03     151.546E-03
            2124            2374     149.796E-03     151.546E-03
            2127            2374     149.796E-03     151.546E-03
            2128            2374     149.796E-03     151.546E-03
            2128            2375     274.065E-03     268.031E-03
            2126            2375     274.065E-03     268.031E-03
            2125            2375     274.065E-03     268.031E-03
            2129            2375     274.065E-03     268.031E-03
            2134            2376     322.303E-03     321.951E-03
            2133            2376     322.303E-03     321.951E-03
            2130            2376     322.303E-03     321.951E-03
            2131            2376     322.303E-03     321.951E-03
            2132            2377     242.600E-03     242.500E-03
            2134            2377     242.600E-03     242.500E-03
            2131            2377     242.600E-03     242.500E-03
            2135            2377     242.600E-03     242.500E-03
            2137            2378     310.491E-03     308.480E-03
            2136            2378     310.491E-03     308.480E-03
            2133            2378     310.491E-03     308.480E-03
            2134            2378     310.491E-03     308.480E-03
            2134            2379     240.089E-03     241.054E-03
            2135            2379     240.089E-03     241.054E-03
            2138            2379     240.089E-03     241.054E-03
            2137            2379     240.089E-03     241.054E-03
            2136            2380     307.786E-03     310.995E-03
            2139            2380     307.786E-03     310.995E-03
            2140            2380     307.786E-03     310.995E-03
            2137            2380     307.786E-03     310.995E-03
            2137            2381     227.701E-03     230.405E-03
            2140            2381     227.701E-03     230.405E-03
            2141            2381     227.701E-03     230.405E-03
            2138            2381     227.701E-03     230.405E-03
            2140            2382     274.947E-03     275.262E-03
            2143            2382     274.947E-03     275.262E-03
            2142            2382     274.947E-03     275.262E-03
            2139            2382     274.947E-03     275.262E-03
            2143            2383     243.203E-03     243.218E-03
            2144            2383     243.203E-03     243.218E-03
            2141            2383     243.203E-03     243.218E-03
            2140            2383     243.203E-03     243.218E-03
            2225            2440     240.725E-03     237.974E-03
            2226            2440     240.725E-03     237.974E-03
            2228            2440     240.725E-03     237.974E-03
            2229            2440     240.725E-03     237.974E-03
            2230            2441     141.473E-03     139.021E-03
            2227            2441     141.473E-03     139.021E-03
            2226            2441     141.473E-03     139.021E-03
            2229            2441     141.473E-03     139.021E-03
            2232            2442     266.310E-03     268.200E-03
            2229            2442     266.310E-03     268.200E-03
            2231            2442     266.310E-03     268.200E-03
            2228            2442     266.310E-03     268.200E-03
            2232            2443     167.697E-03     170.579E-03
            2233            2443     167.697E-03     170.579E-03
            2230            2443     167.697E-03     170.579E-03
            2229            2443     167.697E-03     170.579E-03
            2234            2444     293.337E-03     306.047E-03
            2231            2444     293.337E-03     306.047E-03
            2235            2444     293.337E-03     306.047E-03
            2232            2444     293.337E-03     306.047E-03
            2233            2445     171.106E-03     182.653E-03
            2235            2445     171.106E-03     182.653E-03
            2236            2445     171.106E-03     182.653E-03
            2232            2445     171.106E-03     182.653E-03
            2234            2446     302.512E-03     296.826E-03
            2237            2446     302.512E-03     296.826E-03
            2238            2446     302.512E-03     296.826E-03
            2235            2446     302.512E-03     296.826E-03
            2235            2447     161.120E-03     161.009E-03
            2238            2447     161.120E-03     161.009E-03
            2239            2447     161.120E-03     161.009E-03
            2236            2447     161.120E-03     161.009E-03
            2244            2448     211.243E-03     213.238E-03
            2240            2448     211.243E-03     213.238E-03
            2243            2448     211.243E-03     213.238E-03
            2241            2448     211.243E-03     213.238E-03
            2242            2449     258.975E-03     262.001E-03
            2241            2449     258.975E-03     262.001E-03
            2244            2449     258.975E-03     262.001E-03
            2245            2449     258.975E-03     262.001E-03
            2243            2450     225.672E-03     224.904E-03
            2247            2450     225.672E-03     224.904E-03
            2246            2450     225.672E-03     224.904E-03
            2244            2450     225.672E-03     224.904E-03
            2247            2451     232.207E-03     231.468E-03
            2248            2451     232.207E-03     231.468E-03
            2245            2451     232.207E-03     231.468E-03
            2244            2451     232.207E-03     231.468E-03
            2250            2452     212.294E-03     211.364E-03
            2247            2452     212.294E-03     211.364E-03
            2249            2452     212.294E-03     211.364E-03
            2246            2452     212.294E-03     211.364E-03
            2250            2453     227.487E-03     221.376E-03
            2247            2453     227.487E-03     221.376E-03
            2251            2453     227.487E-03     221.376E-03
            2248            2453     227.487E-03     221.376E-03
            2252            2454     207.120E-03     210.237E-03
            2253            2454     207.120E-03     210.237E-03
            2249            2454     207.120E-03     210.237E-03
            2250            2454     207.120E-03     210.237E-03
            2250            2455     236.583E-03     235.391E-03
            2251            2455     236.583E-03     235.391E-03
            2254            2455     236.583E-03     235.391E-03
            2253            2455     236.583E-03     235.391E-03
            2255            2456     217.511E-03     220.918E-03
            2253            2456     217.511E-03     220.918E-03
            2256            2456     217.511E-03     220.918E-03
            2252            2456     217.511E-03     220.918E-03
            2253            2457     213.838E-03     214.484E-03
            2254            2457     213.838E-03     214.484E-03
            2256            2457     213.838E-03     214.484E-03
            2257            2457     213.838E-03     214.484E-03
            2258            2458     214.968E-03     216.293E-03
            2255            2458     214.968E-03     216.293E-03
            2259            2458     214.968E-03     216.293E-03
            2256            2458     214.968E-03     216.293E-03
            2259            2459     190.705E-03     190.972E-03
            2257            2459     190.705E-03     190.972E-03
            2260            2459     190.705E-03     190.972E-03
            2256            2459     190.705E-03     190.972E-03
            2261            2460     211.174E-03     210.621E-03
            2258            2460     211.174E-03     210.621E-03
            2259            2460     211.174E-03     210.621E-03
            2262            2460     211.174E-03     210.621E-03
            2263            2461     175.912E-03     177.010E-03
            2259            2461     175.912E-03     177.010E-03
            2260            2461     175.912E-03     177.010E-03
            2262            2461     175.912E-03     177.010E-03
            2264            2462     207.746E-03     204.585E-03
            2262            2462     207.746E-03     204.585E-03
            2261            2462     207.746E-03     204.585E-03
            2265            2462     207.746E-03     204.585E-03
            2263            2463     168.532E-03     169.649E-03
            2265            2463     168.532E-03     169.649E-03
            2262            2463     168.532E-03     169.649E-03
            2266            2463     168.532E-03     169.649E-03
            2264            2464     200.702E-03     197.012E-03
            2268            2464     200.702E-03     197.012E-03
            2265            2464     200.702E-03     197.012E-03
            2267            2464     200.702E-03     197.012E-03
            2265            2465     167.901E-03     167.678E-03
            2266            2465     167.901E-03     167.678E-03
            2268            2465     167.901E-03     167.678E-03
            2269            2465     167.901E-03     167.678E-03
            2271            2466     148.011E-03     146.257E-03
            2267            2466     148.011E-03     146.257E-03
            2270            2466     148.011E-03     146.257E-03
            2268            2466     148.011E-03     146.257E-03
            2269            2467     134.162E-03     133.241E-03
            2268            2467     134.162E-03     133.241E-03
            2271            2467     134.162E-03     133.241E-03
            2272            2467     134.162E-03     133.241E-03
            2750            2844     432.831E-06     432.878E-06
            2747            2844     432.831E-06     432.878E-06
            2749            2844     432.831E-06     432.878E-06
            2746            2844     432.831E-06     432.878E-06
            2751            2845     414.350E-06     421.589E-06
            2748            2845     414.350E-06     421.589E-06
            2747            2845     414.350E-06     421.589E-06
            2750            2845     414.350E-06     421.589E-06
            2749            2846     388.060E-06     392.480E-06
            2750            2846     388.060E-06     392.480E-06
            2752            2846     388.060E-06     392.480E-06
            2753            2846     388.060E-06     392.480E-06
            2750            2847     431.693E-06     439.923E-06
            2753            2847     431.693E-06     439.923E-06
            2754            2847     431.693E-06     439.923E-06
            2751            2847     431.693E-06     439.923E-06
            2753            2848     350.566E-06     354.156E-06
            2755            2848     350.566E-06     354.156E-06
            2752            2848     350.566E-06     354.156E-06
            2756            2848     350.566E-06     354.156E-06
            2754            2849     428.842E-06     433.115E-06
            2757            2849     428.842E-06     433.115E-06
            2753            2849     428.842E-06     433.115E-06
            2756            2849     428.842E-06     433.115E-06
            2756            2850     339.556E-06     344.409E-06
            2759            2850     339.556E-06     344.409E-06
            2758            2850     339.556E-06     344.409E-06
            2755            2850     339.556E-06     344.409E-06
            2757            2851     422.830E-06     423.735E-06
            2759            2851     422.830E-06     423.735E-06
            2756            2851     422.830E-06     423.735E-06
            2760            2851     422.830E-06     423.735E-06
            2759            2852     344.493E-06     347.769E-06
            2762            2852     344.493E-06     347.769E-06
            2761            2852     344.493E-06     347.769E-06
            2758            2852     344.493E-06     347.769E-06
            2759            2853     408.931E-06     408.132E-06
            2760            2853     408.931E-06     408.132E-06
            2762            2853     408.931E-06     408.132E-06
            2763            2853     408.931E-06     408.132E-06
            2823            2894     414.350E-06     421.589E-06
            2820            2894     414.350E-06     421.589E-06
            2819            2894     414.350E-06     421.589E-06
            2822            2894     414.350E-06     421.589E-06
            2823            2895     432.831E-06     432.878E-06
            2821            2895     432.831E-06     432.878E-06
            2820            2895     432.831E-06     432.878E-06
            2824            2895     432.831E-06     432.878E-06
            2826            2896     431.693E-06     439.923E-06
            2823            2896     431.693E-06     439.923E-06
            2825            2896     431.693E-06     439.923E-06
            2822            2896     431.693E-06     439.923E-06
            2826            2897     388.060E-06     392.480E-06
            2824            2897     388.060E-06     392.480E-06
            2823            2897     388.060E-06     392.480E-06
            2827            2897     388.060E-06     392.480E-06
            2825            2898     428.842E-06     433.115E-06
            2828            2898     428.842E-06     433.115E-06
            2826            2898     428.842E-06     433.115E-06
            2829            2898     428.842E-06     433.115E-06
            2826            2899     350.566E-06     354.156E-06
            2829            2899     350.566E-06     354.156E-06
            2830            2899     350.566E-06     354.156E-06
            2827            2899     350.566E-06     354.156E-06
            2832            2900     422.830E-06     423.735E-06
            2831            2900     422.830E-06     423.735E-06
            2829            2900     422.830E-06     423.735E-06
            2828            2900     422.830E-06     423.735E-06
            2832            2901     339.556E-06     344.409E-06
            2833            2901     339.556E-06     344.409E-06
            2829            2901     339.556E-06     344.409E-06
            2830            2901     339.556E-06     344.409E-06
            2834            2902     408.931E-06     408.132E-06
            2835            2902     408.931E-06     408.132E-06
            2832            2902     408.931E-06     408.132E-06
            2831            2902     408.931E-06     408.132E-06
            2836            2903     344.493E-06     347.769E-06
            2835            2903     344.493E-06     347.769E-06
            2832            2903     344.493E-06     347.769E-06
            2833            2903     344.493E-06     347.769E-06
            2837            2904     238.636E-03     238.765E-03
            2840            2904     238.636E-03     238.765E-03
            2838            2904     238.636E-03     238.765E-03
            2841            2904     238.636E-03     238.765E-03
            2842            2905     316.171E-03     315.946E-03
            2841            2905     316.171E-03     315.946E-03
            2838            2905     316.171E-03     315.946E-03
            2839            2905     316.171E-03     315.946E-03
            2844            2906     236.776E-03     237.634E-03
            2840            2906     236.776E-03     237.634E-03
            2843            2906     236.776E-03     237.634E-03
            2841            2906     236.776E-03     237.634E-03
            2844            2907     304.991E-03     302.743E-03
            2845            2907     304.991E-03     302.743E-03
            2841            2907     304.991E-03     302.743E-03
            2842            2907     304.991E-03     302.743E-03
            2844            2908     224.193E-03     227.493E-03
            2846            2908     224.193E-03     227.493E-03
            2843            2908     224.193E-03     227.493E-03
            2847            2908     224.193E-03     227.493E-03
            2844            2909     301.877E-03     306.109E-03
            2845            2909     301.877E-03     306.109E-03
            2847            2909     301.877E-03     306.109E-03
            2848            2909     301.877E-03     306.109E-03
            2846            2910     240.865E-03     240.307E-03
            2847            2910     240.865E-03     240.307E-03
            2849            2910     240.865E-03     240.307E-03
            2850            2910     240.865E-03     240.307E-03
            2847            2911     270.780E-03     270.237E-03
            2848            2911     270.780E-03     270.237E-03
            2851            2911     270.780E-03     270.237E-03
            2850            2911     270.780E-03     270.237E-03
            2882            2932     262.940E-03     265.125E-03
            2886            2932     262.940E-03     265.125E-03
            2885            2932     262.940E-03     265.125E-03
            2883            2932     262.940E-03     265.125E-03
            2883            2933     213.354E-03     214.924E-03
            2884            2933     213.354E-03     214.924E-03
            2886            2933     213.354E-03     214.924E-03
            2887            2933     213.354E-03     214.924E-03
            2885            2934     234.687E-03     234.632E-03
            2888            2934     234.687E-03     234.632E-03
            2889            2934     234.687E-03     234.632E-03
            2886            2934     234.687E-03     234.632E-03
            2887            2935     226.970E-03     226.647E-03
            2886            2935     226.970E-03     226.647E-03
            2889            2935     226.970E-03     226.647E-03
            2890            2935     226.970E-03     226.647E-03
            2889            2936     229.439E-03     223.526E-03
            2888            2936     229.439E-03     223.526E-03
            2892            2936     229.439E-03     223.526E-03
            2891            2936     229.439E-03     223.526E-03
            2892            2937     213.250E-03     212.518E-03
            2893            2937     213.250E-03     212.518E-03
            2890            2937     213.250E-03     212.518E-03
            2889            2937     213.250E-03     212.518E-03
            2891            2938     238.543E-03     236.935E-03
            2892            2938     238.543E-03     236.935E-03
            2894            2938     238.543E-03     236.935E-03
            2895            2938     238.543E-03     236.935E-03
            2893            2939     208.046E-03     210.968E-03
            2895            2939     208.046E-03     210.968E-03
            2896            2939     208.046E-03     210.968E-03
            2892            2939     208.046E-03     210.968E-03
            2894            2940     215.420E-03     215.897E-03
            2897            2940     215.420E-03     215.897E-03
            2895            2940     215.420E-03     215.897E-03
            2898            2940     215.420E-03     215.897E-03
            2896            2941     218.276E-03     221.617E-03
            2898            2941     218.276E-03     221.617E-03
            2895            2941     218.276E-03     221.617E-03
            2899            2941     218.276E-03     221.617E-03
            2901            2942     192.019E-03     191.910E-03
            2900            2942     192.019E-03     191.910E-03
            2898            2942     192.019E-03     191.910E-03
            2897            2942     192.019E-03     191.910E-03
            2899            2943     215.637E-03     216.719E-03
            2901            2943     215.637E-03     216.719E-03
            2898            2943     215.637E-03     216.719E-03
            2902            2943     215.637E-03     216.719E-03
            2903            2944     176.804E-03     177.596E-03
            2901            2944     176.804E-03     177.596E-03
            2904            2944     176.804E-03     177.596E-03
            2900            2944     176.804E-03     177.596E-03
            2904            2945     211.610E-03     210.826E-03
            2902            2945     211.610E-03     210.826E-03
            2905            2945     211.610E-03     210.826E-03
            2901            2945     211.610E-03     210.826E-03
            2903            2946     168.844E-03     169.827E-03
            2906            2946     168.844E-03     169.827E-03
            2904            2946     168.844E-03     169.827E-03
            2907            2946     168.844E-03     169.827E-03
            2907            2947     207.810E-03     204.734E-03
            2905            2947     207.810E-03     204.734E-03
            2908            2947     207.810E-03     204.734E-03
            2904            2947     207.810E-03     204.734E-03
            2907            2948     167.441E-03     167.372E-03
            2910            2948     167.441E-03     167.372E-03
            2909            2948     167.441E-03     167.372E-03
            2906            2948     167.441E-03     167.372E-03
            2908            2949     200.507E-03     197.035E-03
            2910            2949     200.507E-03     197.035E-03
            2907            2949     200.507E-03     197.035E-03
            2911            2949     200.507E-03     197.035E-03
            2910            2950     133.750E-03     132.953E-03
            2909            2950     133.750E-03     132.953E-03
            2912            2950     133.750E-03     132.953E-03
            2913            2950     133.750E-03     132.953E-03
            2911            2951     147.890E-03     146.213E-03
            2914            2951     147.890E-03     146.213E-03
            2910            2951     147.890E-03     146.213E-03
            2913            2951     147.890E-03     146.213E-03


  Minimum                            275.252E-06     283.016E-06
      At Element                            2833            2833
            Node                             565             565

  Maximum                            402.569E-03     384.961E-03
      At Element                            2237            2839
            Node                              20              16

           Total                         217.611         216.458


Field Output reported at element nodes for region: CRJ700-1.Region_3
   Computation algorithm: EXTRAPOLATE_COMPUTE_AVERAGE
   Averaged at nodes
   Averaging regions: ODB_REGIONS

   Element Label      Node Label         S.Mises         S.Mises
                                          @Loc 1          @Loc 2
-----------------------------------------------------------------
               1               1     747.687E-06     670.003E-06
            2288               1     747.687E-06     670.003E-06
            2273               2     2.85063E-03     2.90440E-03
              16               2     2.85063E-03     2.90440E-03
            1009               3     355.064E-03     368.396E-03
             544               3     355.064E-03     368.396E-03
             529               4     18.2707E-03     17.9128E-03
             994               4     18.2707E-03     17.9128E-03
            2368               7     155.127E-06     191.663E-06
            2353               9     47.6443E-06     102.842E-06
            1768              16     396.941E-03     426.908E-03
            1073              16     396.941E-03     426.908E-03
            1058              18     29.7249E-03     57.0030E-03
            1753              18     29.7249E-03     57.0030E-03
            1832              21     264.798E-03     277.354E-03
            3026              21     264.798E-03     277.354E-03
            3011              22     40.3011E-03     45.5127E-03
            1817              22     40.3011E-03     45.5127E-03
            2560              28     7.20006E-03     7.44638E-03
            3186              28     7.20006E-03     7.44638E-03
            2545              30     3.79538E-03     4.05020E-03
            3171              30     3.79538E-03     4.05020E-03
            2640              31     47.4694E-06     102.847E-06
            2625              32     154.843E-06     191.321E-06
               2              36     754.622E-06     678.996E-06
            2288              36     754.622E-06     678.996E-06
            2287              36     754.622E-06     678.996E-06
               1              36     754.622E-06     678.996E-06
               3              37     787.459E-06     722.454E-06
            2287              37     787.459E-06     722.454E-06
               2              37     787.459E-06     722.454E-06
            2286              37     787.459E-06     722.454E-06
            2285              38     856.019E-06     809.450E-06
               4              38     856.019E-06     809.450E-06
               3              38     856.019E-06     809.450E-06
            2286              38     856.019E-06     809.450E-06
            2285              39     955.173E-06     925.977E-06
               4              39     955.173E-06     925.977E-06
            2284              39     955.173E-06     925.977E-06
               5              39     955.173E-06     925.977E-06
            2284              40     1.07632E-03     1.06140E-03
            2283              40     1.07632E-03     1.06140E-03
               6              40     1.07632E-03     1.06140E-03
               5              40     1.07632E-03     1.06140E-03
            2282              41     1.21260E-03     1.20925E-03
               7              41     1.21260E-03     1.20925E-03
               6              41     1.21260E-03     1.20925E-03
            2283              41     1.21260E-03     1.20925E-03
            2281              42     1.35956E-03     1.36506E-03
            2282              42     1.35956E-03     1.36506E-03
               8              42     1.35956E-03     1.36506E-03
               7              42     1.35956E-03     1.36506E-03
            2281              43     1.51401E-03     1.52657E-03
               8              43     1.51401E-03     1.52657E-03
               9              43     1.51401E-03     1.52657E-03
            2280              43     1.51401E-03     1.52657E-03
              10              44     1.67358E-03     1.69180E-03
               9              44     1.67358E-03     1.69180E-03
            2280              44     1.67358E-03     1.69180E-03
            2279              44     1.67358E-03     1.69180E-03
            2278              45     1.83719E-03     1.85985E-03
            2279              45     1.83719E-03     1.85985E-03
              11              45     1.83719E-03     1.85985E-03
              10              45     1.83719E-03     1.85985E-03
              11              46     2.00295E-03     2.02961E-03
            2277              46     2.00295E-03     2.02961E-03
              12              46     2.00295E-03     2.02961E-03
            2278              46     2.00295E-03     2.02961E-03
              12              47     2.17129E-03     2.20107E-03
              13              47     2.17129E-03     2.20107E-03
            2277              47     2.17129E-03     2.20107E-03
            2276              47     2.17129E-03     2.20107E-03
            2276              48     2.34251E-03     2.37557E-03
              14              48     2.34251E-03     2.37557E-03
            2275              48     2.34251E-03     2.37557E-03
              13              48     2.34251E-03     2.37557E-03
              15              49     2.52142E-03     2.55853E-03
            2275              49     2.52142E-03     2.55853E-03
            2274              49     2.52142E-03     2.55853E-03
              14              49     2.52142E-03     2.55853E-03
            2273              50     2.73275E-03     2.77902E-03
              16              50     2.73275E-03     2.77902E-03
              15              50     2.73275E-03     2.77902E-03
            2274              50     2.73275E-03     2.77902E-03
              32              51     9.41880E-03     11.8875E-03
              16              51     9.41880E-03     11.8875E-03
              48              52     18.9078E-03     21.5692E-03
              32              52     18.9078E-03     21.5692E-03
              48              53     31.8921E-03     31.4710E-03
              64              53     31.8921E-03     31.4710E-03
              80              54     46.4279E-03     45.3602E-03
              64              54     46.4279E-03     45.3602E-03
              80              55     59.0814E-03     60.8627E-03
              96              55     59.0814E-03     60.8627E-03
              96              56     74.6696E-03     73.9456E-03
             112              56     74.6696E-03     73.9456E-03
             128              57     88.0006E-03     91.6761E-03
             112              57     88.0006E-03     91.6761E-03
             128              58     83.7097E-03     86.3756E-03
             144              58     83.7097E-03     86.3756E-03
             144              59     84.0817E-03     81.3970E-03
             160              59     84.0817E-03     81.3970E-03
             160              60     103.157E-03     103.695E-03
             176              60     103.157E-03     103.695E-03
             192              61     119.437E-03     122.382E-03
             176              61     119.437E-03     122.382E-03
             208              62     135.916E-03     136.015E-03
             192              62     135.916E-03     136.015E-03
             224              63     149.506E-03     153.303E-03
             208              63     149.506E-03     153.303E-03
             224              64     144.612E-03     148.667E-03
             240              64     144.612E-03     148.667E-03
             256              65     147.609E-03     143.926E-03
             240              65     147.609E-03     143.926E-03
             272              66     166.329E-03     168.491E-03
             256              66     166.329E-03     168.491E-03
             272              67     184.486E-03     186.020E-03
             288              67     184.486E-03     186.020E-03
             288              68     198.415E-03     202.884E-03
             304              68     198.415E-03     202.884E-03
             320              69     214.316E-03     215.111E-03
             304              69     214.316E-03     215.111E-03
             320              70     226.424E-03     230.177E-03
             336              70     226.424E-03     230.177E-03
             336              71     218.620E-03     224.569E-03
             352              71     218.620E-03     224.569E-03
             368              72     222.603E-03     218.839E-03
             352              72     222.603E-03     218.839E-03
             368              73     242.671E-03     245.583E-03
             384              73     242.671E-03     245.583E-03
             384              74     261.480E-03     264.313E-03
             400              74     261.480E-03     264.313E-03
             416              75     275.591E-03     281.386E-03
             400              75     275.591E-03     281.386E-03
             432              76     291.276E-03     292.781E-03
             416              76     291.276E-03     292.781E-03
             448              77     302.384E-03     306.167E-03
             432              77     302.384E-03     306.167E-03
             464              78     292.833E-03     300.671E-03
             448              78     292.833E-03     300.671E-03
             464              79     297.402E-03     295.394E-03
             480              79     297.402E-03     295.394E-03
             480              80     321.338E-03     323.114E-03
             496              80     321.338E-03     323.114E-03
             496              81     338.063E-03     346.973E-03
             512              81     338.063E-03     346.973E-03
             528              82     355.400E-03     356.659E-03
             512              82     355.400E-03     356.659E-03
             528              83     365.258E-03     370.043E-03
             544              83     365.258E-03     370.043E-03
            1009              84     334.252E-03     345.255E-03
             543              84     334.252E-03     345.255E-03
            1008              84     334.252E-03     345.255E-03
             544              84     334.252E-03     345.255E-03
             542              85     301.327E-03     309.255E-03
            1007              85     301.327E-03     309.255E-03
            1008              85     301.327E-03     309.255E-03
             543              85     301.327E-03     309.255E-03
            1007              86     276.718E-03     284.818E-03
             542              86     276.718E-03     284.818E-03
            1006              86     276.718E-03     284.818E-03
             541              86     276.718E-03     284.818E-03
            1005              87     253.226E-03     262.081E-03
            1006              87     253.226E-03     262.081E-03
             540              87     253.226E-03     262.081E-03
             541              87     253.226E-03     262.081E-03
            1005              88     230.791E-03     239.983E-03
            1004              88     230.791E-03     239.983E-03
             539              88     230.791E-03     239.983E-03
             540              88     230.791E-03     239.983E-03
             538              89     208.362E-03     217.873E-03
            1004              89     208.362E-03     217.873E-03
             539              89     208.362E-03     217.873E-03
            1003              89     208.362E-03     217.873E-03
            1002              90     186.049E-03     195.609E-03
             538              90     186.049E-03     195.609E-03
             537              90     186.049E-03     195.609E-03
            1003              90     186.049E-03     195.609E-03
             536              91     163.591E-03     173.243E-03
            1002              91     163.591E-03     173.243E-03
             537              91     163.591E-03     173.243E-03
            1001              91     163.591E-03     173.243E-03
            1000              92     141.121E-03     150.768E-03
            1001              92     141.121E-03     150.768E-03
             535              92     141.121E-03     150.768E-03
             536              92     141.121E-03     150.768E-03
            1000              93     118.574E-03     128.274E-03
             999              93     118.574E-03     128.274E-03
             534              93     118.574E-03     128.274E-03
             535              93     118.574E-03     128.274E-03
             998              94     96.0951E-03     105.775E-03
             534              94     96.0951E-03     105.775E-03
             533              94     96.0951E-03     105.775E-03
             999              94     96.0951E-03     105.775E-03
             532              95     73.7632E-03     83.3080E-03
             997              95     73.7632E-03     83.3080E-03
             533              95     73.7632E-03     83.3080E-03
             998              95     73.7632E-03     83.3080E-03
             997              96     51.8067E-03     60.9138E-03
             996              96     51.8067E-03     60.9138E-03
             531              96     51.8067E-03     60.9138E-03
             532              96     51.8067E-03     60.9138E-03
             530              97     31.0949E-03     38.9492E-03
             531              97     31.0949E-03     38.9492E-03
             995              97     31.0949E-03     38.9492E-03
             996              97     31.0949E-03     38.9492E-03
             530              98     19.7727E-03     23.0152E-03
             994              98     19.7727E-03     23.0152E-03
             529              98     19.7727E-03     23.0152E-03
             995              98     19.7727E-03     23.0152E-03
             513              99     14.3867E-03     8.30626E-03
             529              99     14.3867E-03     8.30626E-03
             513             100     18.0716E-03     10.3940E-03
             497             100     18.0716E-03     10.3940E-03
             481             101     25.3440E-03     19.9040E-03
             497             101     25.3440E-03     19.9040E-03
             481             102     37.0521E-03     34.4596E-03
             465             102     37.0521E-03     34.4596E-03
             465             103     42.6508E-03     51.5238E-03
             449             103     42.6508E-03     51.5238E-03
             449             104     26.4291E-03     33.6153E-03
             433             104     26.4291E-03     33.6153E-03
             433             105     12.8743E-03     7.27988E-03
             417             105     12.8743E-03     7.27988E-03
             417             106     15.5554E-03     7.23725E-03
             401             106     15.5554E-03     7.23725E-03
             401             107     20.8680E-03     16.2662E-03
             385             107     20.8680E-03     16.2662E-03
             385             108     28.7751E-03     25.0677E-03
             369             108     28.7751E-03     25.0677E-03
             353             109     38.0505E-03     36.9200E-03
             369             109     38.0505E-03     36.9200E-03
             337             110     42.1248E-03     50.4218E-03
             353             110     42.1248E-03     50.4218E-03
             337             111     26.3292E-03     30.6320E-03
             321             111     26.3292E-03     30.6320E-03
             321             112     12.7658E-03     7.05355E-03
             305             112     12.7658E-03     7.05355E-03
             289             113     15.7758E-03     10.2093E-03
             305             113     15.7758E-03     10.2093E-03
             289             114     20.7483E-03     17.1272E-03
             273             114     20.7483E-03     17.1272E-03
             257             115     26.4938E-03     23.3928E-03
             273             115     26.4938E-03     23.3928E-03
             257             116     33.2155E-03     32.0670E-03
             241             116     33.2155E-03     32.0670E-03
             241             117     35.8790E-03     42.2999E-03
             225             117     35.8790E-03     42.2999E-03
             225             118     24.9017E-03     28.7617E-03
             209             118     24.9017E-03     28.7617E-03
             209             119     15.7771E-03     12.2231E-03
             193             119     15.7771E-03     12.2231E-03
             177             120     18.4404E-03     15.1790E-03
             193             120     18.4404E-03     15.1790E-03
             161             121     22.2103E-03     18.8137E-03
             177             121     22.2103E-03     18.8137E-03
             145             122     26.4592E-03     24.6226E-03
             161             122     26.4592E-03     24.6226E-03
             145             123     28.0278E-03     31.7755E-03
             129             123     28.0278E-03     31.7755E-03
             113             124     22.6387E-03     25.7681E-03
             129             124     22.6387E-03     25.7681E-03
              97             125     18.3550E-03     17.9169E-03
             113             125     18.3550E-03     17.9169E-03
              97             126     19.8245E-03     17.5172E-03
              81             126     19.8245E-03     17.5172E-03
              65             127     21.3155E-03     18.7438E-03
              81             127     21.3155E-03     18.7438E-03
              49             128     22.8180E-03     20.3503E-03
              65             128     22.8180E-03     20.3503E-03
              49             129     24.6559E-03     23.1661E-03
              33             129     24.6559E-03     23.1661E-03
              17             130     24.8127E-03     27.4673E-03
              33             130     24.8127E-03     27.4673E-03
              17             131     12.8392E-03     14.8223E-03
               1             131     12.8392E-03     14.8223E-03
            2352             167     167.689E-06     183.189E-06
            2368             167     167.689E-06     183.189E-06
            2336             168     176.728E-06     161.853E-06
            2352             168     176.728E-06     161.853E-06
            2320             169     169.767E-06     147.862E-06
            2336             169     169.767E-06     147.862E-06
            2304             170     164.432E-06     148.228E-06
            2320             170     164.432E-06     148.228E-06
            2304             171     145.013E-06     154.999E-06
            2288             171     145.013E-06     154.999E-06
            2289             176     330.714E-06     347.722E-06
            2273             176     330.714E-06     347.722E-06
            2305             177     250.592E-06     248.871E-06
            2289             177     250.592E-06     248.871E-06
            2321             178     166.192E-06     168.438E-06
            2305             178     166.192E-06     168.438E-06
            2337             179     90.7798E-06     85.0228E-06
            2321             179     90.7798E-06     85.0228E-06
            2337             180     45.3393E-06     77.0169E-06
            2353             180     45.3393E-06     77.0169E-06
            1025             314     351.501E-03     353.346E-03
            1009             314     351.501E-03     353.346E-03
            1025             315     369.975E-03     372.115E-03
            1041             315     369.975E-03     372.115E-03
            1057             316     397.353E-03     398.564E-03
            1041             316     397.353E-03     398.564E-03
            1073             317     409.652E-03     418.509E-03
            1057             317     409.652E-03     418.509E-03
            1768             324     366.516E-03     396.577E-03
            1073             324     366.516E-03     396.577E-03
            1767             324     366.516E-03     396.577E-03
            1072             324     366.516E-03     396.577E-03
            1072             325     327.487E-03     355.505E-03
            1071             325     327.487E-03     355.505E-03
            1766             325     327.487E-03     355.505E-03
            1767             325     327.487E-03     355.505E-03
            1766             326     304.928E-03     333.610E-03
            1071             326     304.928E-03     333.610E-03
            1070             326     304.928E-03     333.610E-03
            1765             326     304.928E-03     333.610E-03
            1070             327     280.153E-03     310.336E-03
            1764             327     280.153E-03     310.336E-03
            1765             327     280.153E-03     310.336E-03
            1069             327     280.153E-03     310.336E-03
            1069             328     256.651E-03     287.105E-03
            1764             328     256.651E-03     287.105E-03
            1068             328     256.651E-03     287.105E-03
            1763             328     256.651E-03     287.105E-03
            1068             329     232.368E-03     263.859E-03
            1067             329     232.368E-03     263.859E-03
            1762             329     232.368E-03     263.859E-03
            1763             329     232.368E-03     263.859E-03
            1067             330     208.346E-03     240.159E-03
            1762             330     208.346E-03     240.159E-03
            1761             330     208.346E-03     240.159E-03
            1066             330     208.346E-03     240.159E-03
            1066             331     183.953E-03     216.550E-03
            1760             331     183.953E-03     216.550E-03
            1065             331     183.953E-03     216.550E-03
            1761             331     183.953E-03     216.550E-03
            1760             332     159.712E-03     192.764E-03
            1759             332     159.712E-03     192.764E-03
            1064             332     159.712E-03     192.764E-03
            1065             332     159.712E-03     192.764E-03
            1064             333     135.338E-03     169.015E-03
            1063             333     135.338E-03     169.015E-03
            1758             333     135.338E-03     169.015E-03
            1759             333     135.338E-03     169.015E-03
            1757             334     111.116E-03     145.277E-03
            1758             334     111.116E-03     145.277E-03
            1062             334     111.116E-03     145.277E-03
            1063             334     111.116E-03     145.277E-03
            1757             335     86.8872E-03     121.590E-03
            1756             335     86.8872E-03     121.590E-03
            1061             335     86.8872E-03     121.590E-03
            1062             335     86.8872E-03     121.590E-03
            1755             336     63.6627E-03     98.2785E-03
            1756             336     63.6627E-03     98.2785E-03
            1061             336     63.6627E-03     98.2785E-03
            1060             336     63.6627E-03     98.2785E-03
            1060             337     42.4021E-03     75.7491E-03
            1755             337     42.4021E-03     75.7491E-03
            1059             337     42.4021E-03     75.7491E-03
            1754             337     42.4021E-03     75.7491E-03
            1753             338     30.9907E-03     60.7870E-03
            1059             338     30.9907E-03     60.7870E-03
            1754             338     30.9907E-03     60.7870E-03
            1058             338     30.9907E-03     60.7870E-03
            1042             339     37.0848E-03     47.8970E-03
            1058             339     37.0848E-03     47.8970E-03
            1042             340     54.1408E-03     47.2253E-03
            1026             340     54.1408E-03     47.2253E-03
            1026             341     55.2364E-03     68.1218E-03
            1010             341     55.2364E-03     68.1218E-03
             994             342     36.3192E-03     50.0178E-03
            1010             342     36.3192E-03     50.0178E-03
            1768             393     367.101E-03     372.812E-03
            1784             393     367.101E-03     372.812E-03
            1800             394     349.664E-03     354.661E-03
            1784             394     349.664E-03     354.661E-03
            1816             395     335.778E-03     348.989E-03
            1800             395     335.778E-03     348.989E-03
            1832             396     291.057E-03     280.086E-03
            1816             396     291.057E-03     280.086E-03
            1832             397     256.458E-03     266.025E-03
            3026             397     256.458E-03     266.025E-03
            1831             397     256.458E-03     266.025E-03
            3025             397     256.458E-03     266.025E-03
            3024             398     243.474E-03     249.365E-03
            1830             398     243.474E-03     249.365E-03
            1831             398     243.474E-03     249.365E-03
            3025             398     243.474E-03     249.365E-03
            3023             399     229.938E-03     235.544E-03
            1830             399     229.938E-03     235.544E-03
            3024             399     229.938E-03     235.544E-03
            1829             399     229.938E-03     235.544E-03
            3022             400     213.142E-03     219.289E-03
            3023             400     213.142E-03     219.289E-03
            1828             400     213.142E-03     219.289E-03
            1829             400     213.142E-03     219.289E-03
            3021             401     196.859E-03     203.045E-03
            1828             401     196.859E-03     203.045E-03
            3022             401     196.859E-03     203.045E-03
            1827             401     196.859E-03     203.045E-03
            3021             402     180.226E-03     186.387E-03
            1826             402     180.226E-03     186.387E-03
            3020             402     180.226E-03     186.387E-03
            1827             402     180.226E-03     186.387E-03
            3019             403     163.662E-03     169.826E-03
            3020             403     163.662E-03     169.826E-03
            1825             403     163.662E-03     169.826E-03
            1826             403     163.662E-03     169.826E-03
            1825             404     147.064E-03     153.222E-03
            3018             404     147.064E-03     153.222E-03
            3019             404     147.064E-03     153.222E-03
            1824             404     147.064E-03     153.222E-03
            1824             405     130.601E-03     136.764E-03
            3018             405     130.601E-03     136.764E-03
            3017             405     130.601E-03     136.764E-03
            1823             405     130.601E-03     136.764E-03
            1823             406     114.314E-03     120.467E-03
            1822             406     114.314E-03     120.467E-03
            3016             406     114.314E-03     120.467E-03
            3017             406     114.314E-03     120.467E-03
            3015             407     98.3585E-03     104.482E-03
            1822             407     98.3585E-03     104.482E-03
            1821             407     98.3585E-03     104.482E-03
            3016             407     98.3585E-03     104.482E-03
            3015             408     82.8877E-03     88.9591E-03
            3014             408     82.8877E-03     88.9591E-03
            1821             408     82.8877E-03     88.9591E-03
            1820             408     82.8877E-03     88.9591E-03
            1820             409     68.2470E-03     74.4126E-03
            3013             409     68.2470E-03     74.4126E-03
            3014             409     68.2470E-03     74.4126E-03
            1819             409     68.2470E-03     74.4126E-03
            3012             410     55.8586E-03     61.8626E-03
            3013             410     55.8586E-03     61.8626E-03
            1818             410     55.8586E-03     61.8626E-03
            1819             410     55.8586E-03     61.8626E-03
            1817             411     45.3925E-03     50.8852E-03
            1818             411     45.3925E-03     50.8852E-03
            3011             411     45.3925E-03     50.8852E-03
            3012             411     45.3925E-03     50.8852E-03
            1801             412     52.0797E-03     53.4464E-03
            1817             412     52.0797E-03     53.4464E-03
            1801             413     37.6170E-03     46.5056E-03
            1785             413     37.6170E-03     46.5056E-03
            1785             414     40.0906E-03     42.1500E-03
            1769             414     40.0906E-03     42.1500E-03
            1769             415     43.6814E-03     49.3823E-03
            1753             415     43.6814E-03     49.3823E-03
            3042             470     254.464E-03     268.045E-03
            3026             470     254.464E-03     268.045E-03
            3042             471     214.324E-03     201.307E-03
            3058             471     214.324E-03     201.307E-03
            3074             472     203.083E-03     212.101E-03
            3058             472     203.083E-03     212.101E-03
            3090             473     211.309E-03     221.148E-03
            3074             473     211.309E-03     221.148E-03
            3106             474     181.720E-03     179.500E-03
            3090             474     181.720E-03     179.500E-03
            3106             475     146.328E-03     150.245E-03
            3122             475     146.328E-03     150.245E-03
            3138             476     118.471E-03     115.391E-03
            3122             476     118.471E-03     115.391E-03
            3138             477     87.6026E-03     85.1785E-03
            3154             477     87.6026E-03     85.1785E-03
            3170             478     60.0857E-03     65.7111E-03
            3154             478     60.0857E-03     65.7111E-03
            3186             479     31.0754E-03     37.3975E-03
            3170             479     31.0754E-03     37.3975E-03
            2367             492     165.173E-06     185.160E-06
            2368             492     165.173E-06     185.160E-06
            2366             493     178.024E-06     176.526E-06
            2367             493     178.024E-06     176.526E-06
            2366             494     182.001E-06     174.817E-06
            2365             494     182.001E-06     174.817E-06
            2364             495     185.504E-06     175.512E-06
            2365             495     185.504E-06     175.512E-06
            2363             496     188.893E-06     176.293E-06
            2364             496     188.893E-06     176.293E-06
            2362             497     192.230E-06     177.976E-06
            2363             497     192.230E-06     177.976E-06
            2361             498     195.609E-06     179.467E-06
            2362             498     195.609E-06     179.467E-06
            2361             499     199.162E-06     181.521E-06
            2360             499     199.162E-06     181.521E-06
            2359             500     201.729E-06     182.837E-06
            2360             500     201.729E-06     182.837E-06
            2358             501     204.001E-06     183.476E-06
            2359             501     204.001E-06     183.476E-06
            2358             502     202.213E-06     181.136E-06
            2357             502     202.213E-06     181.136E-06
            2356             503     196.335E-06     172.926E-06
            2357             503     196.335E-06     172.926E-06
            2355             504     177.106E-06     152.519E-06
            2356             504     177.106E-06     152.519E-06
            2354             505     143.997E-06     115.202E-06
            2355             505     143.997E-06     115.202E-06
            2353             506     87.9145E-06     98.1629E-06
            2354             506     87.9145E-06     98.1629E-06
            3027             522     37.4589E-03     43.7435E-03
            3011             522     37.4589E-03     43.7435E-03
            3043             523     48.4112E-03     48.1721E-03
            3027             523     48.4112E-03     48.1721E-03
            3059             524     37.8505E-03     43.9460E-03
            3043             524     37.8505E-03     43.9460E-03
            3059             525     34.5445E-03     40.6922E-03
            3075             525     34.5445E-03     40.6922E-03
            3091             526     44.5001E-03     39.3083E-03
            3075             526     44.5001E-03     39.3083E-03
            3091             527     48.2437E-03     43.1335E-03
            3107             527     48.2437E-03     43.1335E-03
            3107             528     52.2947E-03     46.4050E-03
            3123             528     52.2947E-03     46.4050E-03
            3139             529     56.4199E-03     52.5566E-03
            3123             529     56.4199E-03     52.5566E-03
            3155             530     54.5453E-03     62.4715E-03
            3139             530     54.5453E-03     62.4715E-03
            3171             531     29.4413E-03     36.2960E-03
            3155             531     29.4413E-03     36.2960E-03
            3171             547     3.82276E-03     4.07604E-03
            3172             547     3.82276E-03     4.07604E-03
            2545             547     3.82276E-03     4.07604E-03
            2546             547     3.82276E-03     4.07604E-03
            3172             548     3.89317E-03     4.14694E-03
            3173             548     3.89317E-03     4.14694E-03
            2546             548     3.89317E-03     4.14694E-03
            2547             548     3.89317E-03     4.14694E-03
            3173             549     3.99544E-03     4.25383E-03
            2548             549     3.99544E-03     4.25383E-03
            2547             549     3.99544E-03     4.25383E-03
            3174             549     3.99544E-03     4.25383E-03
            2549             550     4.13057E-03     4.39218E-03
            3175             550     4.13057E-03     4.39218E-03
            2548             550     4.13057E-03     4.39218E-03
            3174             550     4.13057E-03     4.39218E-03
            3176             551     4.29562E-03     4.55849E-03
            2549             551     4.29562E-03     4.55849E-03
            2550             551     4.29562E-03     4.55849E-03
            3175             551     4.29562E-03     4.55849E-03
            2551             552     4.48732E-03     4.75003E-03
            3177             552     4.48732E-03     4.75003E-03
            3176             552     4.48732E-03     4.75003E-03
            2550             552     4.48732E-03     4.75003E-03
            3177             553     4.70262E-03     4.96362E-03
            2551             553     4.70262E-03     4.96362E-03
            3178             553     4.70262E-03     4.96362E-03
            2552             553     4.70262E-03     4.96362E-03
            3178             554     4.93841E-03     5.19683E-03
            2552             554     4.93841E-03     5.19683E-03
            3179             554     4.93841E-03     5.19683E-03
            2553             554     4.93841E-03     5.19683E-03
            2553             555     5.19161E-03     5.44680E-03
            3180             555     5.19161E-03     5.44680E-03
            2554             555     5.19161E-03     5.44680E-03
            3179             555     5.19161E-03     5.44680E-03
            3181             556     5.46009E-03     5.71147E-03
            2554             556     5.46009E-03     5.71147E-03
            2555             556     5.46009E-03     5.71147E-03
            3180             556     5.46009E-03     5.71147E-03
            3182             557     5.74078E-03     5.98848E-03
            2556             557     5.74078E-03     5.98848E-03
            2555             557     5.74078E-03     5.98848E-03
            3181             557     5.74078E-03     5.98848E-03
            2557             558     6.03292E-03     6.27660E-03
            3182             558     6.03292E-03     6.27660E-03
            2556             558     6.03292E-03     6.27660E-03
            3183             558     6.03292E-03     6.27660E-03
            3184             559     6.33569E-03     6.57601E-03
            3183             559     6.33569E-03     6.57601E-03
            2557             559     6.33569E-03     6.57601E-03
            2558             559     6.33569E-03     6.57601E-03
            2559             560     6.65296E-03     6.89112E-03
            3184             560     6.65296E-03     6.89112E-03
            3185             560     6.65296E-03     6.89112E-03
            2558             560     6.65296E-03     6.89112E-03
            3186             561     7.00862E-03     7.25018E-03
            2559             561     7.00862E-03     7.25018E-03
            2560             561     7.00862E-03     7.25018E-03
            3185             561     7.00862E-03     7.25018E-03
            2560             562     328.773E-06     345.900E-06
            2576             562     328.773E-06     345.900E-06
            2576             563     249.046E-06     247.304E-06
            2592             563     249.046E-06     247.304E-06
            2608             564     164.918E-06     167.155E-06
            2592             564     164.918E-06     167.155E-06
            2624             565     89.7259E-06     84.0537E-06
            2608             565     89.7259E-06     84.0537E-06
            2640             566     44.7854E-06     76.6045E-06
            2624             566     44.7854E-06     76.6045E-06
            2640             567     88.0426E-06     98.3803E-06
            2639             567     88.0426E-06     98.3803E-06
            2639             568     144.263E-06     115.496E-06
            2638             568     144.263E-06     115.496E-06
            2638             569     177.137E-06     152.558E-06
            2637             569     177.137E-06     152.558E-06
            2636             570     196.201E-06     172.772E-06
            2637             570     196.201E-06     172.772E-06
            2635             571     201.941E-06     180.834E-06
            2636             571     201.941E-06     180.834E-06
            2635             572     203.642E-06     183.081E-06
            2634             572     203.642E-06     183.081E-06
            2634             573     201.333E-06     182.410E-06
            2633             573     201.333E-06     182.410E-06
            2632             574     198.759E-06     181.086E-06
            2633             574     198.759E-06     181.086E-06
            2632             575     195.216E-06     179.044E-06
            2631             575     195.216E-06     179.044E-06
            2631             576     191.854E-06     177.574E-06
            2630             576     191.854E-06     177.574E-06
            2629             577     188.535E-06     175.914E-06
            2630             577     188.535E-06     175.914E-06
            2629             578     185.171E-06     175.151E-06
            2628             578     185.171E-06     175.151E-06
            2628             579     181.685E-06     174.465E-06
            2627             579     181.685E-06     174.465E-06
            2627             580     177.739E-06     176.167E-06
            2626             580     177.739E-06     176.167E-06
            2625             581     164.899E-06     184.806E-06
            2626             581     164.899E-06     184.806E-06
            2609             582     167.393E-06     182.911E-06
            2625             582     167.393E-06     182.911E-06
            2593             583     176.519E-06     161.637E-06
            2609             583     176.519E-06     161.637E-06
            2593             584     169.692E-06     147.647E-06
            2577             584     169.692E-06     147.647E-06
            2577             585     164.378E-06     148.161E-06
            2561             585     164.378E-06     148.161E-06
            2545             586     144.997E-06     155.068E-06
            2561             586     144.997E-06     155.068E-06
               1             635     13.7730E-03     14.8717E-03
              17             635     13.7730E-03     14.8717E-03
              18             635     13.7730E-03     14.8717E-03
               2             635     13.7730E-03     14.8717E-03
              19             636     15.0687E-03     14.8616E-03
               2             636     15.0687E-03     14.8616E-03
              18             636     15.0687E-03     14.8616E-03
               3             636     15.0687E-03     14.8616E-03
               3             637     15.8561E-03     15.1564E-03
               4             637     15.8561E-03     15.1564E-03
              20             637     15.8561E-03     15.1564E-03
              19             637     15.8561E-03     15.1564E-03
               4             638     16.6974E-03     15.7571E-03
              21             638     16.6974E-03     15.7571E-03
              20             638     16.6974E-03     15.7571E-03
               5             638     16.6974E-03     15.7571E-03
              22             639     17.5617E-03     16.3833E-03
               5             639     17.5617E-03     16.3833E-03
               6             639     17.5617E-03     16.3833E-03
              21             639     17.5617E-03     16.3833E-03
              22             640     18.4848E-03     17.1088E-03
              23             640     18.4848E-03     17.1088E-03
               7             640     18.4848E-03     17.1088E-03
               6             640     18.4848E-03     17.1088E-03
               8             641     19.4339E-03     17.8799E-03
              24             641     19.4339E-03     17.8799E-03
              23             641     19.4339E-03     17.8799E-03
               7             641     19.4339E-03     17.8799E-03
              25             642     20.3823E-03     18.6503E-03
              24             642     20.3823E-03     18.6503E-03
               9             642     20.3823E-03     18.6503E-03
               8             642     20.3823E-03     18.6503E-03
              25             643     21.2683E-03     19.3757E-03
              10             643     21.2683E-03     19.3757E-03
              26             643     21.2683E-03     19.3757E-03
               9             643     21.2683E-03     19.3757E-03
              11             644     22.0104E-03     19.9463E-03
              27             644     22.0104E-03     19.9463E-03
              26             644     22.0104E-03     19.9463E-03
              10             644     22.0104E-03     19.9463E-03
              28             645     22.3795E-03     20.1287E-03
              27             645     22.3795E-03     20.1287E-03
              11             645     22.3795E-03     20.1287E-03
              12             645     22.3795E-03     20.1287E-03
              28             646     22.2635E-03     19.7488E-03
              29             646     22.2635E-03     19.7488E-03
              12             646     22.2635E-03     19.7488E-03
              13             646     22.2635E-03     19.7488E-03
              30             647     20.8978E-03     18.0433E-03
              13             647     20.8978E-03     18.0433E-03
              14             647     20.8978E-03     18.0433E-03
              29             647     20.8978E-03     18.0433E-03
              14             648     18.1879E-03     14.6971E-03
              30             648     18.1879E-03     14.6971E-03
              15             648     18.1879E-03     14.6971E-03
              31             648     18.1879E-03     14.6971E-03
              31             649     13.0537E-03     12.2859E-03
              16             649     13.0537E-03     12.2859E-03
              15             649     13.0537E-03     12.2859E-03
              32             649     13.0537E-03     12.2859E-03
              34             650     25.8533E-03     27.7614E-03
              17             650     25.8533E-03     27.7614E-03
              33             650     25.8533E-03     27.7614E-03
              18             650     25.8533E-03     27.7614E-03
              35             651     27.6519E-03     27.9996E-03
              19             651     27.6519E-03     27.9996E-03
              34             651     27.6519E-03     27.9996E-03
              18             651     27.6519E-03     27.9996E-03
              36             652     29.2106E-03     28.3468E-03
              19             652     29.2106E-03     28.3468E-03
              20             652     29.2106E-03     28.3468E-03
              35             652     29.2106E-03     28.3468E-03
              20             653     30.6931E-03     29.2283E-03
              21             653     30.6931E-03     29.2283E-03
              36             653     30.6931E-03     29.2283E-03
              37             653     30.6931E-03     29.2283E-03
              37             654     32.1950E-03     30.3006E-03
              21             654     32.1950E-03     30.3006E-03
              38             654     32.1950E-03     30.3006E-03
              22             654     32.1950E-03     30.3006E-03
              23             655     33.8213E-03     31.5748E-03
              39             655     33.8213E-03     31.5748E-03
              22             655     33.8213E-03     31.5748E-03
              38             655     33.8213E-03     31.5748E-03
              40             656     35.5234E-03     32.9697E-03
              24             656     35.5234E-03     32.9697E-03
              23             656     35.5234E-03     32.9697E-03
              39             656     35.5234E-03     32.9697E-03
              41             657     37.2963E-03     34.4506E-03
              25             657     37.2963E-03     34.4506E-03
              24             657     37.2963E-03     34.4506E-03
              40             657     37.2963E-03     34.4506E-03
              25             658     39.0238E-03     35.9237E-03
              42             658     39.0238E-03     35.9237E-03
              41             658     39.0238E-03     35.9237E-03
              26             658     39.0238E-03     35.9237E-03
              26             659     40.5953E-03     37.2023E-03
              42             659     40.5953E-03     37.2023E-03
              43             659     40.5953E-03     37.2023E-03
              27             659     40.5953E-03     37.2023E-03
              27             660     41.6663E-03     38.0133E-03
              28             660     41.6663E-03     38.0133E-03
              44             660     41.6663E-03     38.0133E-03
              43             660     41.6663E-03     38.0133E-03
              29             661     41.6586E-03     37.6799E-03
              45             661     41.6586E-03     37.6799E-03
              28             661     41.6586E-03     37.6799E-03
              44             661     41.6586E-03     37.6799E-03
              46             662     39.6614E-03     35.2422E-03
              30             662     39.6614E-03     35.2422E-03
              45             662     39.6614E-03     35.2422E-03
              29             662     39.6614E-03     35.2422E-03
              31             663     33.2222E-03     28.6431E-03
              47             663     33.2222E-03     28.6431E-03
              46             663     33.2222E-03     28.6431E-03
              30             663     33.2222E-03     28.6431E-03
              31             664     23.6650E-03     22.7392E-03
              48             664     23.6650E-03     22.7392E-03
              47             664     23.6650E-03     22.7392E-03
              32             664     23.6650E-03     22.7392E-03
              49             665     25.1162E-03     24.6124E-03
              34             665     25.1162E-03     24.6124E-03
              33             665     25.1162E-03     24.6124E-03
              50             665     25.1162E-03     24.6124E-03
              51             666     26.1531E-03     26.4823E-03
              50             666     26.1531E-03     26.4823E-03
              35             666     26.1531E-03     26.4823E-03
              34             666     26.1531E-03     26.4823E-03
              52             667     27.4602E-03     27.2212E-03
              35             667     27.4602E-03     27.2212E-03
              36             667     27.4602E-03     27.2212E-03
              51             667     27.4602E-03     27.2212E-03
              37             668     28.9103E-03     28.1411E-03
              53             668     28.9103E-03     28.1411E-03
              52             668     28.9103E-03     28.1411E-03
              36             668     28.9103E-03     28.1411E-03
              38             669     30.4207E-03     29.4123E-03
              54             669     30.4207E-03     29.4123E-03
              37             669     30.4207E-03     29.4123E-03
              53             669     30.4207E-03     29.4123E-03
              54             670     32.1219E-03     30.8899E-03
              39             670     32.1219E-03     30.8899E-03
              38             670     32.1219E-03     30.8899E-03
              55             670     32.1219E-03     30.8899E-03
              40             671     34.0198E-03     32.6256E-03
              39             671     34.0198E-03     32.6256E-03
              55             671     34.0198E-03     32.6256E-03
              56             671     34.0198E-03     32.6256E-03
              56             672     36.0927E-03     34.5566E-03
              40             672     36.0927E-03     34.5566E-03
              57             672     36.0927E-03     34.5566E-03
              41             672     36.0927E-03     34.5566E-03
              42             673     38.3261E-03     36.6599E-03
              57             673     38.3261E-03     36.6599E-03
              58             673     38.3261E-03     36.6599E-03
              41             673     38.3261E-03     36.6599E-03
              42             674     40.5733E-03     38.7987E-03
              43             674     40.5733E-03     38.7987E-03
              58             674     40.5733E-03     38.7987E-03
              59             674     40.5733E-03     38.7987E-03
              59             675     42.7071E-03     40.8133E-03
              43             675     42.7071E-03     40.8133E-03
              60             675     42.7071E-03     40.8133E-03
              44             675     42.7071E-03     40.8133E-03
              45             676     43.8974E-03     42.0412E-03
              60             676     43.8974E-03     42.0412E-03
              61             676     43.8974E-03     42.0412E-03
              44             676     43.8974E-03     42.0412E-03
              45             677     43.0794E-03     41.4554E-03
              46             677     43.0794E-03     41.4554E-03
              62             677     43.0794E-03     41.4554E-03
              61             677     43.0794E-03     41.4554E-03
              46             678     37.1112E-03     36.4552E-03
              47             678     37.1112E-03     36.4552E-03
              63             678     37.1112E-03     36.4552E-03
              62             678     37.1112E-03     36.4552E-03
              47             679     32.0044E-03     31.8835E-03
              48             679     32.0044E-03     31.8835E-03
              63             679     32.0044E-03     31.8835E-03
              64             679     32.0044E-03     31.8835E-03
              66             680     23.6486E-03     21.6573E-03
              49             680     23.6486E-03     21.6573E-03
              65             680     23.6486E-03     21.6573E-03
              50             680     23.6486E-03     21.6573E-03
              67             681     24.9506E-03     24.0767E-03
              66             681     24.9506E-03     24.0767E-03
              51             681     24.9506E-03     24.0767E-03
              50             681     24.9506E-03     24.0767E-03
              68             682     25.9553E-03     25.8682E-03
              52             682     25.9553E-03     25.8682E-03
              67             682     25.9553E-03     25.8682E-03
              51             682     25.9553E-03     25.8682E-03
              52             683     27.1944E-03     27.1977E-03
              68             683     27.1944E-03     27.1977E-03
              53             683     27.1944E-03     27.1977E-03
              69             683     27.1944E-03     27.1977E-03
              54             684     28.7009E-03     28.6376E-03
              69             684     28.7009E-03     28.6376E-03
              53             684     28.7009E-03     28.6376E-03
              70             684     28.7009E-03     28.6376E-03
              71             685     30.4536E-03     30.3584E-03
              54             685     30.4536E-03     30.3584E-03
              70             685     30.4536E-03     30.3584E-03
              55             685     30.4536E-03     30.3584E-03
              55             686     32.4848E-03     32.3641E-03
              72             686     32.4848E-03     32.3641E-03
              56             686     32.4848E-03     32.3641E-03
              71             686     32.4848E-03     32.3641E-03
              57             687     34.7714E-03     34.6447E-03
              56             687     34.7714E-03     34.6447E-03
              72             687     34.7714E-03     34.6447E-03
              73             687     34.7714E-03     34.6447E-03
              74             688     37.2873E-03     37.1558E-03
              58             688     37.2873E-03     37.1558E-03
              57             688     37.2873E-03     37.1558E-03
              73             688     37.2873E-03     37.1558E-03
              74             689     39.9998E-03     39.8810E-03
              75             689     39.9998E-03     39.8810E-03
              59             689     39.9998E-03     39.8810E-03
              58             689     39.9998E-03     39.8810E-03
              76             690     42.6099E-03     42.5619E-03
              75             690     42.6099E-03     42.5619E-03
              60             690     42.6099E-03     42.5619E-03
              59             690     42.6099E-03     42.5619E-03
              61             691     44.9525E-03     44.9775E-03
              76             691     44.9525E-03     44.9775E-03
              77             691     44.9525E-03     44.9775E-03
              60             691     44.9525E-03     44.9775E-03
              78             692     45.1880E-03     45.8584E-03
              62             692     45.1880E-03     45.8584E-03
              61             692     45.1880E-03     45.8584E-03
              77             692     45.1880E-03     45.8584E-03
              62             693     42.5683E-03     43.9970E-03
              78             693     42.5683E-03     43.9970E-03
              63             693     42.5683E-03     43.9970E-03
              79             693     42.5683E-03     43.9970E-03
              63             694     43.6388E-03     43.8851E-03
              80             694     43.6388E-03     43.8851E-03
              64             694     43.6388E-03     43.8851E-03
              79             694     43.6388E-03     43.8851E-03
              65             695     22.0382E-03     19.9071E-03
              82             695     22.0382E-03     19.9071E-03
              81             695     22.0382E-03     19.9071E-03
              66             695     22.0382E-03     19.9071E-03
              82             696     23.2933E-03     22.3219E-03
              66             696     23.2933E-03     22.3219E-03
              67             696     23.2933E-03     22.3219E-03
              83             696     23.2933E-03     22.3219E-03
              67             697     24.3020E-03     24.5092E-03
              84             697     24.3020E-03     24.5092E-03
              68             697     24.3020E-03     24.5092E-03
              83             697     24.3020E-03     24.5092E-03
              84             698     25.4115E-03     26.1902E-03
              85             698     25.4115E-03     26.1902E-03
              68             698     25.4115E-03     26.1902E-03
              69             698     25.4115E-03     26.1902E-03
              85             699     26.8827E-03     27.8514E-03
              70             699     26.8827E-03     27.8514E-03
              86             699     26.8827E-03     27.8514E-03
              69             699     26.8827E-03     27.8514E-03
              87             700     28.6775E-03     29.8011E-03
              86             700     28.6775E-03     29.8011E-03
              71             700     28.6775E-03     29.8011E-03
              70             700     28.6775E-03     29.8011E-03
              72             701     30.7569E-03     32.0009E-03
              71             701     30.7569E-03     32.0009E-03
              87             701     30.7569E-03     32.0009E-03
              88             701     30.7569E-03     32.0009E-03
              88             702     33.1249E-03     34.4664E-03
              89             702     33.1249E-03     34.4664E-03
              73             702     33.1249E-03     34.4664E-03
              72             702     33.1249E-03     34.4664E-03
              73             703     35.7214E-03     37.1648E-03
              89             703     35.7214E-03     37.1648E-03
              90             703     35.7214E-03     37.1648E-03
              74             703     35.7214E-03     37.1648E-03
              90             704     38.5184E-03     40.0507E-03
              91             704     38.5184E-03     40.0507E-03
              74             704     38.5184E-03     40.0507E-03
              75             704     38.5184E-03     40.0507E-03
              75             705     41.4260E-03     43.1026E-03
              92             705     41.4260E-03     43.1026E-03
              76             705     41.4260E-03     43.1026E-03
              91             705     41.4260E-03     43.1026E-03
              92             706     44.1732E-03     46.0372E-03
              76             706     44.1732E-03     46.0372E-03
              93             706     44.1732E-03     46.0372E-03
              77             706     44.1732E-03     46.0372E-03
              77             707     46.9149E-03     48.8436E-03
              93             707     46.9149E-03     48.8436E-03
              78             707     46.9149E-03     48.8436E-03
              94             707     46.9149E-03     48.8436E-03
              78             708     49.8139E-03     51.3936E-03
              94             708     49.8139E-03     51.3936E-03
              95             708     49.8139E-03     51.3936E-03
              79             708     49.8139E-03     51.3936E-03
              80             709     55.1688E-03     56.6848E-03
              96             709     55.1688E-03     56.6848E-03
              95             709     55.1688E-03     56.6848E-03
              79             709     55.1688E-03     56.6848E-03
              97             710     20.3862E-03     19.0237E-03
              98             710     20.3862E-03     19.0237E-03
              81             710     20.3862E-03     19.0237E-03
              82             710     20.3862E-03     19.0237E-03
              82             711     21.3466E-03     21.5141E-03
              98             711     21.3466E-03     21.5141E-03
              99             711     21.3466E-03     21.5141E-03
              83             711     21.3466E-03     21.5141E-03
              84             712     22.2433E-03     23.2781E-03
              99             712     22.2433E-03     23.2781E-03
              83             712     22.2433E-03     23.2781E-03
             100             712     22.2433E-03     23.2781E-03
             100             713     23.4159E-03     25.0355E-03
              85             713     23.4159E-03     25.0355E-03
             101             713     23.4159E-03     25.0355E-03
              84             713     23.4159E-03     25.0355E-03
              86             714     24.8894E-03     27.0112E-03
              85             714     24.8894E-03     27.0112E-03
             101             714     24.8894E-03     27.0112E-03
             102             714     24.8894E-03     27.0112E-03
              86             715     26.6913E-03     29.1304E-03
             102             715     26.6913E-03     29.1304E-03
             103             715     26.6913E-03     29.1304E-03
              87             715     26.6913E-03     29.1304E-03
             103             716     28.7978E-03     31.4888E-03
             104             716     28.7978E-03     31.4888E-03
              87             716     28.7978E-03     31.4888E-03
              88             716     28.7978E-03     31.4888E-03
             104             717     31.1319E-03     34.0136E-03
              89             717     31.1319E-03     34.0136E-03
              88             717     31.1319E-03     34.0136E-03
             105             717     31.1319E-03     34.0136E-03
              89             718     33.6807E-03     36.7201E-03
             106             718     33.6807E-03     36.7201E-03
             105             718     33.6807E-03     36.7201E-03
              90             718     33.6807E-03     36.7201E-03
              91             719     36.3589E-03     39.5551E-03
             107             719     36.3589E-03     39.5551E-03
              90             719     36.3589E-03     39.5551E-03
             106             719     36.3589E-03     39.5551E-03
             108             720     39.2677E-03     42.5990E-03
             107             720     39.2677E-03     42.5990E-03
              91             720     39.2677E-03     42.5990E-03
              92             720     39.2677E-03     42.5990E-03
             108             721     42.3692E-03     45.9145E-03
              93             721     42.3692E-03     45.9145E-03
             109             721     42.3692E-03     45.9145E-03
              92             721     42.3692E-03     45.9145E-03
              94             722     46.6419E-03     50.0363E-03
              93             722     46.6419E-03     50.0363E-03
             109             722     46.6419E-03     50.0363E-03
             110             722     46.6419E-03     50.0363E-03
             111             723     54.9116E-03     57.2540E-03
              94             723     54.9116E-03     57.2540E-03
              95             723     54.9116E-03     57.2540E-03
             110             723     54.9116E-03     57.2540E-03
              96             724     67.5654E-03     67.9915E-03
             112             724     67.5654E-03     67.9915E-03
             111             724     67.5654E-03     67.9915E-03
              95             724     67.5654E-03     67.9915E-03
             114             725     18.6953E-03     18.8380E-03
              98             725     18.6953E-03     18.8380E-03
              97             725     18.6953E-03     18.8380E-03
             113             725     18.6953E-03     18.8380E-03
              98             726     19.2070E-03     20.3444E-03
              99             726     19.2070E-03     20.3444E-03
             114             726     19.2070E-03     20.3444E-03
             115             726     19.2070E-03     20.3444E-03
             116             727     19.9478E-03     21.8833E-03
             115             727     19.9478E-03     21.8833E-03
             100             727     19.9478E-03     21.8833E-03
              99             727     19.9478E-03     21.8833E-03
             100             728     21.1588E-03     23.8929E-03
             116             728     21.1588E-03     23.8929E-03
             117             728     21.1588E-03     23.8929E-03
             101             728     21.1588E-03     23.8929E-03
             117             729     22.6708E-03     26.0699E-03
             101             729     22.6708E-03     26.0699E-03
             102             729     22.6708E-03     26.0699E-03
             118             729     22.6708E-03     26.0699E-03
             102             730     24.5154E-03     28.4094E-03
             118             730     24.5154E-03     28.4094E-03
             119             730     24.5154E-03     28.4094E-03
             103             730     24.5154E-03     28.4094E-03
             119             731     26.6209E-03     30.8626E-03
             120             731     26.6209E-03     30.8626E-03
             104             731     26.6209E-03     30.8626E-03
             103             731     26.6209E-03     30.8626E-03
             121             732     28.9310E-03     33.4473E-03
             104             732     28.9310E-03     33.4473E-03
             105             732     28.9310E-03     33.4473E-03
             120             732     28.9310E-03     33.4473E-03
             121             733     31.3794E-03     36.0905E-03
             122             733     31.3794E-03     36.0905E-03
             105             733     31.3794E-03     36.0905E-03
             106             733     31.3794E-03     36.0905E-03
             123             734     33.9887E-03     38.8693E-03
             122             734     33.9887E-03     38.8693E-03
             106             734     33.9887E-03     38.8693E-03
             107             734     33.9887E-03     38.8693E-03
             124             735     36.7342E-03     41.7670E-03
             108             735     36.7342E-03     41.7670E-03
             123             735     36.7342E-03     41.7670E-03
             107             735     36.7342E-03     41.7670E-03
             109             736     40.2144E-03     45.3384E-03
             125             736     40.2144E-03     45.3384E-03
             124             736     40.2144E-03     45.3384E-03
             108             736     40.2144E-03     45.3384E-03
             110             737     44.9536E-03     50.2281E-03
             109             737     44.9536E-03     50.2281E-03
             126             737     44.9536E-03     50.2281E-03
             125             737     44.9536E-03     50.2281E-03
             111             738     54.3124E-03     59.6285E-03
             126             738     54.3124E-03     59.6285E-03
             110             738     54.3124E-03     59.6285E-03
             127             738     54.3124E-03     59.6285E-03
             128             739     74.5034E-03     78.9873E-03
             127             739     74.5034E-03     78.9873E-03
             112             739     74.5034E-03     78.9873E-03
             111             739     74.5034E-03     78.9873E-03
             113             740     24.2260E-03     26.1409E-03
             129             740     24.2260E-03     26.1409E-03
             130             740     24.2260E-03     26.1409E-03
             114             740     24.2260E-03     26.1409E-03
             114             741     26.7392E-03     27.0509E-03
             115             741     26.7392E-03     27.0509E-03
             130             741     26.7392E-03     27.0509E-03
             131             741     26.7392E-03     27.0509E-03
             131             742     29.1310E-03     29.2083E-03
             116             742     29.1310E-03     29.2083E-03
             115             742     29.1310E-03     29.2083E-03
             132             742     29.1310E-03     29.2083E-03
             117             743     32.1579E-03     32.4234E-03
             133             743     32.1579E-03     32.4234E-03
             132             743     32.1579E-03     32.4234E-03
             116             743     32.1579E-03     32.4234E-03
             133             744     35.5771E-03     35.9273E-03
             117             744     35.5771E-03     35.9273E-03
             134             744     35.5771E-03     35.9273E-03
             118             744     35.5771E-03     35.9273E-03
             134             745     39.4088E-03     39.8798E-03
             118             745     39.4088E-03     39.8798E-03
             135             745     39.4088E-03     39.8798E-03
             119             745     39.4088E-03     39.8798E-03
             135             746     43.4568E-03     43.9809E-03
             119             746     43.4568E-03     43.9809E-03
             120             746     43.4568E-03     43.9809E-03
             136             746     43.4568E-03     43.9809E-03
             136             747     47.7059E-03     48.2863E-03
             120             747     47.7059E-03     48.2863E-03
             121             747     47.7059E-03     48.2863E-03
             137             747     47.7059E-03     48.2863E-03
             122             748     52.0009E-03     52.5922E-03
             121             748     52.0009E-03     52.5922E-03
             137             748     52.0009E-03     52.5922E-03
             138             748     52.0009E-03     52.5922E-03
             139             749     56.3299E-03     56.9056E-03
             123             749     56.3299E-03     56.9056E-03
             122             749     56.3299E-03     56.9056E-03
             138             749     56.3299E-03     56.9056E-03
             140             750     60.5511E-03     61.0694E-03
             123             750     60.5511E-03     61.0694E-03
             124             750     60.5511E-03     61.0694E-03
             139             750     60.5511E-03     61.0694E-03
             140             751     64.6503E-03     65.0303E-03
             124             751     64.6503E-03     65.0303E-03
             141             751     64.6503E-03     65.0303E-03
             125             751     64.6503E-03     65.0303E-03
             142             752     68.7609E-03     68.8778E-03
             125             752     68.7609E-03     68.8778E-03
             141             752     68.7609E-03     68.8778E-03
             126             752     68.7609E-03     68.8778E-03
             143             753     72.9070E-03     73.0271E-03
             126             753     72.9070E-03     73.0271E-03
             142             753     72.9070E-03     73.0271E-03
             127             753     72.9070E-03     73.0271E-03
             144             754     79.3694E-03     80.8785E-03
             143             754     79.3694E-03     80.8785E-03
             128             754     79.3694E-03     80.8785E-03
             127             754     79.3694E-03     80.8785E-03
             146             755     29.4784E-03     32.0137E-03
             130             755     29.4784E-03     32.0137E-03
             129             755     29.4784E-03     32.0137E-03
             145             755     29.4784E-03     32.0137E-03
             131             756     32.9355E-03     33.1145E-03
             146             756     32.9355E-03     33.1145E-03
             130             756     32.9355E-03     33.1145E-03
             147             756     32.9355E-03     33.1145E-03
             132             757     37.2984E-03     35.8724E-03
             131             757     37.2984E-03     35.8724E-03
             148             757     37.2984E-03     35.8724E-03
             147             757     37.2984E-03     35.8724E-03
             133             758     42.2500E-03     40.1441E-03
             148             758     42.2500E-03     40.1441E-03
             149             758     42.2500E-03     40.1441E-03
             132             758     42.2500E-03     40.1441E-03
             150             759     47.7497E-03     45.2766E-03
             134             759     47.7497E-03     45.2766E-03
             133             759     47.7497E-03     45.2766E-03
             149             759     47.7497E-03     45.2766E-03
             150             760     53.7090E-03     50.9796E-03
             151             760     53.7090E-03     50.9796E-03
             134             760     53.7090E-03     50.9796E-03
             135             760     53.7090E-03     50.9796E-03
             136             761     59.9727E-03     57.0620E-03
             151             761     59.9727E-03     57.0620E-03
             135             761     59.9727E-03     57.0620E-03
             152             761     59.9727E-03     57.0620E-03
             152             762     66.4286E-03     63.3925E-03
             153             762     66.4286E-03     63.3925E-03
             136             762     66.4286E-03     63.3925E-03
             137             762     66.4286E-03     63.3925E-03
             137             763     73.0186E-03     69.8373E-03
             154             763     73.0186E-03     69.8373E-03
             153             763     73.0186E-03     69.8373E-03
             138             763     73.0186E-03     69.8373E-03
             139             764     79.5618E-03     76.2926E-03
             154             764     79.5618E-03     76.2926E-03
             155             764     79.5618E-03     76.2926E-03
             138             764     79.5618E-03     76.2926E-03
             155             765     85.9989E-03     82.5080E-03
             156             765     85.9989E-03     82.5080E-03
             139             765     85.9989E-03     82.5080E-03
             140             765     85.9989E-03     82.5080E-03
             140             766     91.7336E-03     88.0840E-03
             141             766     91.7336E-03     88.0840E-03
             156             766     91.7336E-03     88.0840E-03
             157             766     91.7336E-03     88.0840E-03
             141             767     95.8236E-03     92.0157E-03
             158             767     95.8236E-03     92.0157E-03
             142             767     95.8236E-03     92.0157E-03
             157             767     95.8236E-03     92.0157E-03
             143             768     96.3043E-03     92.3472E-03
             158             768     96.3043E-03     92.3472E-03
             159             768     96.3043E-03     92.3472E-03
             142             768     96.3043E-03     92.3472E-03
             160             769     89.6372E-03     86.3551E-03
             143             769     89.6372E-03     86.3551E-03
             144             769     89.6372E-03     86.3551E-03
             159             769     89.6372E-03     86.3551E-03
             145             770     26.8980E-03     26.4840E-03
             161             770     26.8980E-03     26.4840E-03
             162             770     26.8980E-03     26.4840E-03
             146             770     26.8980E-03     26.4840E-03
             163             771     28.9709E-03     29.6711E-03
             147             771     28.9709E-03     29.6711E-03
             146             771     28.9709E-03     29.6711E-03
             162             771     28.9709E-03     29.6711E-03
             147             772     33.0514E-03     33.0597E-03
             148             772     33.0514E-03     33.0597E-03
             164             772     33.0514E-03     33.0597E-03
             163             772     33.0514E-03     33.0597E-03
             149             773     38.2408E-03     37.8185E-03
             165             773     38.2408E-03     37.8185E-03
             148             773     38.2408E-03     37.8185E-03
             164             773     38.2408E-03     37.8185E-03
             149             774     44.0545E-03     43.5121E-03
             150             774     44.0545E-03     43.5121E-03
             166             774     44.0545E-03     43.5121E-03
             165             774     44.0545E-03     43.5121E-03
             151             775     50.3983E-03     49.7849E-03
             166             775     50.3983E-03     49.7849E-03
             150             775     50.3983E-03     49.7849E-03
             167             775     50.3983E-03     49.7849E-03
             151             776     57.1032E-03     56.4832E-03
             168             776     57.1032E-03     56.4832E-03
             167             776     57.1032E-03     56.4832E-03
             152             776     57.1032E-03     56.4832E-03
             153             777     64.0970E-03     63.4492E-03
             168             777     64.0970E-03     63.4492E-03
             169             777     64.0970E-03     63.4492E-03
             152             777     64.0970E-03     63.4492E-03
             154             778     71.2944E-03     70.6469E-03
             170             778     71.2944E-03     70.6469E-03
             169             778     71.2944E-03     70.6469E-03
             153             778     71.2944E-03     70.6469E-03
             154             779     78.7016E-03     78.0357E-03
             155             779     78.7016E-03     78.0357E-03
             170             779     78.7016E-03     78.0357E-03
             171             779     78.7016E-03     78.0357E-03
             155             780     86.1436E-03     85.5304E-03
             171             780     86.1436E-03     85.5304E-03
             156             780     86.1436E-03     85.5304E-03
             172             780     86.1436E-03     85.5304E-03
             173             781     93.5602E-03     92.9824E-03
             157             781     93.5602E-03     92.9824E-03
             156             781     93.5602E-03     92.9824E-03
             172             781     93.5602E-03     92.9824E-03
             174             782     99.8679E-03     99.7066E-03
             158             782     99.8679E-03     99.7066E-03
             173             782     99.8679E-03     99.7066E-03
             157             782     99.8679E-03     99.7066E-03
             159             783     102.088E-03     103.297E-03
             174             783     102.088E-03     103.297E-03
             175             783     102.088E-03     103.297E-03
             158             783     102.088E-03     103.297E-03
             176             784     102.452E-03     103.775E-03
             175             784     102.452E-03     103.775E-03
             160             784     102.452E-03     103.775E-03
             159             784     102.452E-03     103.775E-03
             178             785     23.1154E-03     20.8772E-03
             162             785     23.1154E-03     20.8772E-03
             177             785     23.1154E-03     20.8772E-03
             161             785     23.1154E-03     20.8772E-03
             178             786     25.4389E-03     25.4922E-03
             162             786     25.4389E-03     25.4922E-03
             179             786     25.4389E-03     25.4922E-03
             163             786     25.4389E-03     25.4922E-03
             179             787     29.1836E-03     30.5481E-03
             180             787     29.1836E-03     30.5481E-03
             163             787     29.1836E-03     30.5481E-03
             164             787     29.1836E-03     30.5481E-03
             181             788     34.4235E-03     35.9838E-03
             164             788     34.4235E-03     35.9838E-03
             180             788     34.4235E-03     35.9838E-03
             165             788     34.4235E-03     35.9838E-03
             166             789     40.5425E-03     42.2008E-03
             182             789     40.5425E-03     42.2008E-03
             165             789     40.5425E-03     42.2008E-03
             181             789     40.5425E-03     42.2008E-03
             182             790     47.2088E-03     48.9873E-03
             167             790     47.2088E-03     48.9873E-03
             166             790     47.2088E-03     48.9873E-03
             183             790     47.2088E-03     48.9873E-03
             167             791     54.2712E-03     56.1149E-03
             184             791     54.2712E-03     56.1149E-03
             168             791     54.2712E-03     56.1149E-03
             183             791     54.2712E-03     56.1149E-03
             184             792     61.6151E-03     63.5183E-03
             185             792     61.6151E-03     63.5183E-03
             168             792     61.6151E-03     63.5183E-03
             169             792     61.6151E-03     63.5183E-03
             169             793     69.1836E-03     71.1416E-03
             170             793     69.1836E-03     71.1416E-03
             185             793     69.1836E-03     71.1416E-03
             186             793     69.1836E-03     71.1416E-03
             170             794     76.9637E-03     78.9825E-03
             171             794     76.9637E-03     78.9825E-03
             186             794     76.9637E-03     78.9825E-03
             187             794     76.9637E-03     78.9825E-03
             172             795     84.9216E-03     87.1059E-03
             187             795     84.9216E-03     87.1059E-03
             188             795     84.9216E-03     87.1059E-03
             171             795     84.9216E-03     87.1059E-03
             189             796     92.9742E-03     95.4118E-03
             188             796     92.9742E-03     95.4118E-03
             173             796     92.9742E-03     95.4118E-03
             172             796     92.9742E-03     95.4118E-03
             190             797     101.297E-03     104.013E-03
             173             797     101.297E-03     104.013E-03
             189             797     101.297E-03     104.013E-03
             174             797     101.297E-03     104.013E-03
             175             798     108.724E-03     111.729E-03
             190             798     108.724E-03     111.729E-03
             174             798     108.724E-03     111.729E-03
             191             798     108.724E-03     111.729E-03
             176             799     115.657E-03     118.701E-03
             175             799     115.657E-03     118.701E-03
             192             799     115.657E-03     118.701E-03
             191             799     115.657E-03     118.701E-03
             193             800     19.0721E-03     17.2495E-03
             194             800     19.0721E-03     17.2495E-03
             177             800     19.0721E-03     17.2495E-03
             178             800     19.0721E-03     17.2495E-03
             179             801     21.3018E-03     22.2615E-03
             194             801     21.3018E-03     22.2615E-03
             195             801     21.3018E-03     22.2615E-03
             178             801     21.3018E-03     22.2615E-03
             196             802     25.2543E-03     28.1977E-03
             195             802     25.2543E-03     28.1977E-03
             179             802     25.2543E-03     28.1977E-03
             180             802     25.2543E-03     28.1977E-03
             180             803     30.6396E-03     34.4527E-03
             197             803     30.6396E-03     34.4527E-03
             181             803     30.6396E-03     34.4527E-03
             196             803     30.6396E-03     34.4527E-03
             197             804     37.0539E-03     41.2357E-03
             198             804     37.0539E-03     41.2357E-03
             181             804     37.0539E-03     41.2357E-03
             182             804     37.0539E-03     41.2357E-03
             198             805     44.0100E-03     48.3819E-03
             182             805     44.0100E-03     48.3819E-03
             183             805     44.0100E-03     48.3819E-03
             199             805     44.0100E-03     48.3819E-03
             199             806     51.3053E-03     55.7951E-03
             183             806     51.3053E-03     55.7951E-03
             200             806     51.3053E-03     55.7951E-03
             184             806     51.3053E-03     55.7951E-03
             200             807     58.8167E-03     63.3805E-03
             184             807     58.8167E-03     63.3805E-03
             201             807     58.8167E-03     63.3805E-03
             185             807     58.8167E-03     63.3805E-03
             201             808     66.5098E-03     71.1141E-03
             202             808     66.5098E-03     71.1141E-03
             185             808     66.5098E-03     71.1141E-03
             186             808     66.5098E-03     71.1141E-03
             203             809     74.2891E-03     78.9831E-03
             186             809     74.2891E-03     78.9831E-03
             202             809     74.2891E-03     78.9831E-03
             187             809     74.2891E-03     78.9831E-03
             203             810     82.2865E-03     87.0549E-03
             204             810     82.2865E-03     87.0549E-03
             188             810     82.2865E-03     87.0549E-03
             187             810     82.2865E-03     87.0549E-03
             188             811     90.4961E-03     95.5368E-03
             205             811     90.4961E-03     95.5368E-03
             204             811     90.4961E-03     95.5368E-03
             189             811     90.4961E-03     95.5368E-03
             205             812     99.5469E-03     104.726E-03
             206             812     99.5469E-03     104.726E-03
             190             812     99.5469E-03     104.726E-03
             189             812     99.5469E-03     104.726E-03
             191             813     112.770E-03     116.812E-03
             206             813     112.770E-03     116.812E-03
             207             813     112.770E-03     116.812E-03
             190             813     112.770E-03     116.812E-03
             191             814     128.473E-03     130.033E-03
             207             814     128.473E-03     130.033E-03
             208             814     128.473E-03     130.033E-03
             192             814     128.473E-03     130.033E-03
             193             815     15.5241E-03     14.6442E-03
             210             815     15.5241E-03     14.6442E-03
             194             815     15.5241E-03     14.6442E-03
             209             815     15.5241E-03     14.6442E-03
             194             816     16.7039E-03     19.9214E-03
             195             816     16.7039E-03     19.9214E-03
             210             816     16.7039E-03     19.9214E-03
             211             816     16.7039E-03     19.9214E-03
             212             817     20.8496E-03     26.2452E-03
             195             817     20.8496E-03     26.2452E-03
             196             817     20.8496E-03     26.2452E-03
             211             817     20.8496E-03     26.2452E-03
             197             818     26.7897E-03     33.3183E-03
             212             818     26.7897E-03     33.3183E-03
             213             818     26.7897E-03     33.3183E-03
             196             818     26.7897E-03     33.3183E-03
             198             819     33.5522E-03     40.5453E-03
             197             819     33.5522E-03     40.5453E-03
             213             819     33.5522E-03     40.5453E-03
             214             819     33.5522E-03     40.5453E-03
             199             820     40.7577E-03     47.9451E-03
             214             820     40.7577E-03     47.9451E-03
             198             820     40.7577E-03     47.9451E-03
             215             820     40.7577E-03     47.9451E-03
             199             821     48.1812E-03     55.4642E-03
             200             821     48.1812E-03     55.4642E-03
             215             821     48.1812E-03     55.4642E-03
             216             821     48.1812E-03     55.4642E-03
             216             822     55.7451E-03     63.0682E-03
             217             822     55.7451E-03     63.0682E-03
             201             822     55.7451E-03     63.0682E-03
             200             822     55.7451E-03     63.0682E-03
             217             823     63.3470E-03     70.6882E-03
             202             823     63.3470E-03     70.6882E-03
             201             823     63.3470E-03     70.6882E-03
             218             823     63.3470E-03     70.6882E-03
             202             824     71.0393E-03     78.3587E-03
             219             824     71.0393E-03     78.3587E-03
             218             824     71.0393E-03     78.3587E-03
             203             824     71.0393E-03     78.3587E-03
             220             825     78.7717E-03     86.0623E-03
             204             825     78.7717E-03     86.0623E-03
             219             825     78.7717E-03     86.0623E-03
             203             825     78.7717E-03     86.0623E-03
             220             826     87.0462E-03     94.2196E-03
             221             826     87.0462E-03     94.2196E-03
             205             826     87.0462E-03     94.2196E-03
             204             826     87.0462E-03     94.2196E-03
             221             827     96.3565E-03     103.399E-03
             206             827     96.3565E-03     103.399E-03
             222             827     96.3565E-03     103.399E-03
             205             827     96.3565E-03     103.399E-03
             222             828     109.987E-03     116.788E-03
             223             828     109.987E-03     116.788E-03
             206             828     109.987E-03     116.788E-03
             207             828     109.987E-03     116.788E-03
             223             829     134.128E-03     139.334E-03
             224             829     134.128E-03     139.334E-03
             208             829     134.128E-03     139.334E-03
             207             829     134.128E-03     139.334E-03
             226             830     26.5411E-03     29.3647E-03
             209             830     26.5411E-03     29.3647E-03
             225             830     26.5411E-03     29.3647E-03
             210             830     26.5411E-03     29.3647E-03
             227             831     30.4376E-03     32.5170E-03
             210             831     30.4376E-03     32.5170E-03
             226             831     30.4376E-03     32.5170E-03
             211             831     30.4376E-03     32.5170E-03
             228             832     35.9887E-03     38.6650E-03
             212             832     35.9887E-03     38.6650E-03
             211             832     35.9887E-03     38.6650E-03
             227             832     35.9887E-03     38.6650E-03
             228             833     43.1318E-03     46.1426E-03
             229             833     43.1318E-03     46.1426E-03
             212             833     43.1318E-03     46.1426E-03
             213             833     43.1318E-03     46.1426E-03
             229             834     51.1082E-03     54.1920E-03
             213             834     51.1082E-03     54.1920E-03
             214             834     51.1082E-03     54.1920E-03
             230             834     51.1082E-03     54.1920E-03
             215             835     59.5382E-03     62.6271E-03
             214             835     59.5382E-03     62.6271E-03
             230             835     59.5382E-03     62.6271E-03
             231             835     59.5382E-03     62.6271E-03
             216             836     68.2793E-03     71.2984E-03
             231             836     68.2793E-03     71.2984E-03
             232             836     68.2793E-03     71.2984E-03
             215             836     68.2793E-03     71.2984E-03
             232             837     77.0918E-03     80.0524E-03
             233             837     77.0918E-03     80.0524E-03
             217             837     77.0918E-03     80.0524E-03
             216             837     77.0918E-03     80.0524E-03
             233             838     85.9345E-03     88.7646E-03
             234             838     85.9345E-03     88.7646E-03
             217             838     85.9345E-03     88.7646E-03
             218             838     85.9345E-03     88.7646E-03
             235             839     94.6143E-03     97.3114E-03
             234             839     94.6143E-03     97.3114E-03
             218             839     94.6143E-03     97.3114E-03
             219             839     94.6143E-03     97.3114E-03
             220             840     103.106E-03     105.441E-03
             235             840     103.106E-03     105.441E-03
             236             840     103.106E-03     105.441E-03
             219             840     103.106E-03     105.441E-03
             236             841     111.266E-03     113.159E-03
             237             841     111.266E-03     113.159E-03
             220             841     111.266E-03     113.159E-03
             221             841     111.266E-03     113.159E-03
             222             842     119.286E-03     120.434E-03
             237             842     119.286E-03     120.434E-03
             238             842     119.286E-03     120.434E-03
             221             842     119.286E-03     120.434E-03
             222             843     127.232E-03     127.801E-03
             223             843     127.232E-03     127.801E-03
             238             843     127.232E-03     127.801E-03
             239             843     127.232E-03     127.801E-03
             240             844     137.824E-03     140.165E-03
             224             844     137.824E-03     140.165E-03
             223             844     137.824E-03     140.165E-03
             239             844     137.824E-03     140.165E-03
             242             845     37.7146E-03     42.2943E-03
             241             845     37.7146E-03     42.2943E-03
             225             845     37.7146E-03     42.2943E-03
             226             845     37.7146E-03     42.2943E-03
             227             846     42.8754E-03     44.1664E-03
             242             846     42.8754E-03     44.1664E-03
             226             846     42.8754E-03     44.1664E-03
             243             846     42.8754E-03     44.1664E-03
             227             847     50.2292E-03     49.5762E-03
             243             847     50.2292E-03     49.5762E-03
             244             847     50.2292E-03     49.5762E-03
             228             847     50.2292E-03     49.5762E-03
             228             848     58.7391E-03     57.4561E-03
             229             848     58.7391E-03     57.4561E-03
             244             848     58.7391E-03     57.4561E-03
             245             848     58.7391E-03     57.4561E-03
             230             849     68.1326E-03     66.6025E-03
             229             849     68.1326E-03     66.6025E-03
             245             849     68.1326E-03     66.6025E-03
             246             849     68.1326E-03     66.6025E-03
             247             850     78.2057E-03     76.5136E-03
             230             850     78.2057E-03     76.5136E-03
             231             850     78.2057E-03     76.5136E-03
             246             850     78.2057E-03     76.5136E-03
             232             851     88.6463E-03     86.8652E-03
             248             851     88.6463E-03     86.8652E-03
             231             851     88.6463E-03     86.8652E-03
             247             851     88.6463E-03     86.8652E-03
             249             852     99.3346E-03     97.4252E-03
             248             852     99.3346E-03     97.4252E-03
             232             852     99.3346E-03     97.4252E-03
             233             852     99.3346E-03     97.4252E-03
             250             853     110.055E-03     108.051E-03
             233             853     110.055E-03     108.051E-03
             249             853     110.055E-03     108.051E-03
             234             853     110.055E-03     108.051E-03
             250             854     120.709E-03     118.475E-03
             235             854     120.709E-03     118.475E-03
             251             854     120.709E-03     118.475E-03
             234             854     120.709E-03     118.475E-03
             235             855     130.945E-03     128.491E-03
             251             855     130.945E-03     128.491E-03
             252             855     130.945E-03     128.491E-03
             236             855     130.945E-03     128.491E-03
             237             856     140.246E-03     137.458E-03
             236             856     140.246E-03     137.458E-03
             252             856     140.246E-03     137.458E-03
             253             856     140.246E-03     137.458E-03
             253             857     147.879E-03     144.660E-03
             237             857     147.879E-03     144.660E-03
             254             857     147.879E-03     144.660E-03
             238             857     147.879E-03     144.660E-03
             238             858     151.764E-03     148.706E-03
             255             858     151.764E-03     148.706E-03
             254             858     151.764E-03     148.706E-03
             239             858     151.764E-03     148.706E-03
             239             859     150.015E-03     146.772E-03
             256             859     150.015E-03     146.772E-03
             240             859     150.015E-03     146.772E-03
             255             859     150.015E-03     146.772E-03
             241             860     33.4731E-03     34.4007E-03
             242             860     33.4731E-03     34.4007E-03
             257             860     33.4731E-03     34.4007E-03
             258             860     33.4731E-03     34.4007E-03
             258             861     36.7705E-03     39.0927E-03
             259             861     36.7705E-03     39.0927E-03
             242             861     36.7705E-03     39.0927E-03
             243             861     36.7705E-03     39.0927E-03
             244             862     44.2648E-03     45.3088E-03
             260             862     44.2648E-03     45.3088E-03
             243             862     44.2648E-03     45.3088E-03
             259             862     44.2648E-03     45.3088E-03
             260             863     53.6415E-03     53.9599E-03
             261             863     53.6415E-03     53.9599E-03
             244             863     53.6415E-03     53.9599E-03
             245             863     53.6415E-03     53.9599E-03
             262             864     63.9373E-03     64.0421E-03
             245             864     63.9373E-03     64.0421E-03
             261             864     63.9373E-03     64.0421E-03
             246             864     63.9373E-03     64.0421E-03
             246             865     74.8626E-03     74.9077E-03
             262             865     74.8626E-03     74.9077E-03
             247             865     74.8626E-03     74.9077E-03
             263             865     74.8626E-03     74.9077E-03
             264             866     86.1999E-03     86.2457E-03
             263             866     86.1999E-03     86.2457E-03
             248             866     86.1999E-03     86.2457E-03
             247             866     86.1999E-03     86.2457E-03
             265             867     97.8332E-03     97.8940E-03
             264             867     97.8332E-03     97.8940E-03
             249             867     97.8332E-03     97.8940E-03
             248             867     97.8332E-03     97.8940E-03
             249             868     109.699E-03     109.751E-03
             266             868     109.699E-03     109.751E-03
             265             868     109.699E-03     109.751E-03
             250             868     109.699E-03     109.751E-03
             251             869     121.631E-03     121.743E-03
             250             869     121.631E-03     121.743E-03
             266             869     121.631E-03     121.743E-03
             267             869     121.631E-03     121.743E-03
             268             870     133.574E-03     133.716E-03
             267             870     133.574E-03     133.716E-03
             251             870     133.574E-03     133.716E-03
             252             870     133.574E-03     133.716E-03
             269             871     144.910E-03     145.341E-03
             253             871     144.910E-03     145.341E-03
             268             871     144.910E-03     145.341E-03
             252             871     144.910E-03     145.341E-03
             253             872     154.583E-03     155.721E-03
             254             872     154.583E-03     155.721E-03
             270             872     154.583E-03     155.721E-03
             269             872     154.583E-03     155.721E-03
             271             873     160.868E-03     162.873E-03
             255             873     160.868E-03     162.873E-03
             270             873     160.868E-03     162.873E-03
             254             873     160.868E-03     162.873E-03
             271             874     164.558E-03     166.903E-03
             255             874     164.558E-03     166.903E-03
             272             874     164.558E-03     166.903E-03
             256             874     164.558E-03     166.903E-03
             273             875     27.6250E-03     26.1978E-03
             258             875     27.6250E-03     26.1978E-03
             274             875     27.6250E-03     26.1978E-03
             257             875     27.6250E-03     26.1978E-03
             258             876     31.6284E-03     33.0008E-03
             259             876     31.6284E-03     33.0008E-03
             275             876     31.6284E-03     33.0008E-03
             274             876     31.6284E-03     33.0008E-03
             275             877     39.1317E-03     41.4535E-03
             260             877     39.1317E-03     41.4535E-03
             259             877     39.1317E-03     41.4535E-03
             276             877     39.1317E-03     41.4535E-03
             276             878     49.1697E-03     51.2103E-03
             260             878     49.1697E-03     51.2103E-03
             261             878     49.1697E-03     51.2103E-03
             277             878     49.1697E-03     51.2103E-03
             262             879     60.2159E-03     62.1833E-03
             261             879     60.2159E-03     62.1833E-03
             278             879     60.2159E-03     62.1833E-03
             277             879     60.2159E-03     62.1833E-03
             263             880     71.8004E-03     73.7916E-03
             279             880     71.8004E-03     73.7916E-03
             262             880     71.8004E-03     73.7916E-03
             278             880     71.8004E-03     73.7916E-03
             263             881     83.7977E-03     85.8394E-03
             280             881     83.7977E-03     85.8394E-03
             279             881     83.7977E-03     85.8394E-03
             264             881     83.7977E-03     85.8394E-03
             280             882     96.0719E-03     98.1964E-03
             281             882     96.0719E-03     98.1964E-03
             264             882     96.0719E-03     98.1964E-03
             265             882     96.0719E-03     98.1964E-03
             265             883     108.587E-03     110.820E-03
             282             883     108.587E-03     110.820E-03
             266             883     108.587E-03     110.820E-03
             281             883     108.587E-03     110.820E-03
             266             884     121.338E-03     123.744E-03
             282             884     121.338E-03     123.744E-03
             267             884     121.338E-03     123.744E-03
             283             884     121.338E-03     123.744E-03
             267             885     134.141E-03     136.880E-03
             268             885     134.141E-03     136.880E-03
             283             885     134.141E-03     136.880E-03
             284             885     134.141E-03     136.880E-03
             268             886     147.126E-03     150.264E-03
             285             886     147.126E-03     150.264E-03
             269             886     147.126E-03     150.264E-03
             284             886     147.126E-03     150.264E-03
             286             887     159.228E-03     163.131E-03
             270             887     159.228E-03     163.131E-03
             269             887     159.228E-03     163.131E-03
             285             887     159.228E-03     163.131E-03
             286             888     169.281E-03     173.965E-03
             287             888     169.281E-03     173.965E-03
             271             888     169.281E-03     173.965E-03
             270             888     169.281E-03     173.965E-03
             287             889     179.180E-03     182.374E-03
             288             889     179.180E-03     182.374E-03
             271             889     179.180E-03     182.374E-03
             272             889     179.180E-03     182.374E-03
             289             890     21.5398E-03     19.8611E-03
             290             890     21.5398E-03     19.8611E-03
             273             890     21.5398E-03     19.8611E-03
             274             890     21.5398E-03     19.8611E-03
             291             891     25.9828E-03     27.4953E-03
             275             891     25.9828E-03     27.4953E-03
             274             891     25.9828E-03     27.4953E-03
             290             891     25.9828E-03     27.4953E-03
             291             892     34.6027E-03     37.8781E-03
             275             892     34.6027E-03     37.8781E-03
             292             892     34.6027E-03     37.8781E-03
             276             892     34.6027E-03     37.8781E-03
             292             893     45.1628E-03     49.0371E-03
             277             893     45.1628E-03     49.0371E-03
             293             893     45.1628E-03     49.0371E-03
             276             893     45.1628E-03     49.0371E-03
             293             894     56.7250E-03     60.7131E-03
             277             894     56.7250E-03     60.7131E-03
             294             894     56.7250E-03     60.7131E-03
             278             894     56.7250E-03     60.7131E-03
             279             895     68.7949E-03     72.8650E-03
             294             895     68.7949E-03     72.8650E-03
             278             895     68.7949E-03     72.8650E-03
             295             895     68.7949E-03     72.8650E-03
             280             896     81.1315E-03     85.2860E-03
             279             896     81.1315E-03     85.2860E-03
             295             896     81.1315E-03     85.2860E-03
             296             896     81.1315E-03     85.2860E-03
             281             897     93.7085E-03     97.9409E-03
             280             897     93.7085E-03     97.9409E-03
             296             897     93.7085E-03     97.9409E-03
             297             897     93.7085E-03     97.9409E-03
             282             898     106.456E-03     110.830E-03
             297             898     106.456E-03     110.830E-03
             281             898     106.456E-03     110.830E-03
             298             898     106.456E-03     110.830E-03
             282             899     119.410E-03     123.963E-03
             283             899     119.410E-03     123.963E-03
             298             899     119.410E-03     123.963E-03
             299             899     119.410E-03     123.963E-03
             283             900     132.647E-03     137.552E-03
             299             900     132.647E-03     137.552E-03
             284             900     132.647E-03     137.552E-03
             300             900     132.647E-03     137.552E-03
             284             901     146.184E-03     151.534E-03
             285             901     146.184E-03     151.534E-03
             301             901     146.184E-03     151.534E-03
             300             901     146.184E-03     151.534E-03
             286             902     161.154E-03     166.508E-03
             302             902     161.154E-03     166.508E-03
             285             902     161.154E-03     166.508E-03
             301             902     161.154E-03     166.508E-03
             287             903     176.905E-03     181.799E-03
             302             903     176.905E-03     181.799E-03
             303             903     176.905E-03     181.799E-03
             286             903     176.905E-03     181.799E-03
             287             904     191.472E-03     196.011E-03
             288             904     191.472E-03     196.011E-03
             304             904     191.472E-03     196.011E-03
             303             904     191.472E-03     196.011E-03
             305             905     16.1806E-03     13.9216E-03
             290             905     16.1806E-03     13.9216E-03
             306             905     16.1806E-03     13.9216E-03
             289             905     16.1806E-03     13.9216E-03
             306             906     20.7497E-03     23.3857E-03
             307             906     20.7497E-03     23.3857E-03
             290             906     20.7497E-03     23.3857E-03
             291             906     20.7497E-03     23.3857E-03
             292             907     30.2339E-03     35.1926E-03
             291             907     30.2339E-03     35.1926E-03
             308             907     30.2339E-03     35.1926E-03
             307             907     30.2339E-03     35.1926E-03
             308             908     41.4416E-03     47.3353E-03
             309             908     41.4416E-03     47.3353E-03
             293             908     41.4416E-03     47.3353E-03
             292             908     41.4416E-03     47.3353E-03
             294             909     53.4290E-03     59.5981E-03
             310             909     53.4290E-03     59.5981E-03
             309             909     53.4290E-03     59.5981E-03
             293             909     53.4290E-03     59.5981E-03
             311             910     65.7122E-03     71.9957E-03
             295             910     65.7122E-03     71.9957E-03
             294             910     65.7122E-03     71.9957E-03
             310             910     65.7122E-03     71.9957E-03
             296             911     78.1741E-03     84.5152E-03
             312             911     78.1741E-03     84.5152E-03
             311             911     78.1741E-03     84.5152E-03
             295             911     78.1741E-03     84.5152E-03
             296             912     90.7304E-03     97.1174E-03
             312             912     90.7304E-03     97.1174E-03
             313             912     90.7304E-03     97.1174E-03
             297             912     90.7304E-03     97.1174E-03
             297             913     103.407E-03     109.823E-03
             314             913     103.407E-03     109.823E-03
             298             913     103.407E-03     109.823E-03
             313             913     103.407E-03     109.823E-03
             314             914     116.172E-03     122.705E-03
             298             914     116.172E-03     122.705E-03
             299             914     116.172E-03     122.705E-03
             315             914     116.172E-03     122.705E-03
             299             915     129.286E-03     135.911E-03
             315             915     129.286E-03     135.911E-03
             316             915     129.286E-03     135.911E-03
             300             915     129.286E-03     135.911E-03
             316             916     143.045E-03     149.907E-03
             317             916     143.045E-03     149.907E-03
             301             916     143.045E-03     149.907E-03
             300             916     143.045E-03     149.907E-03
             302             917     158.568E-03     165.389E-03
             301             917     158.568E-03     165.389E-03
             317             917     158.568E-03     165.389E-03
             318             917     158.568E-03     165.389E-03
             302             918     179.725E-03     184.970E-03
             318             918     179.725E-03     184.970E-03
             303             918     179.725E-03     184.970E-03
             319             918     179.725E-03     184.970E-03
             320             919     203.343E-03     205.725E-03
             303             919     203.343E-03     205.725E-03
             319             919     203.343E-03     205.725E-03
             304             919     203.343E-03     205.725E-03
             306             920     11.8201E-03     10.6192E-03
             322             920     11.8201E-03     10.6192E-03
             305             920     11.8201E-03     10.6192E-03
             321             920     11.8201E-03     10.6192E-03
             307             921     15.5964E-03     20.8352E-03
             323             921     15.5964E-03     20.8352E-03
             322             921     15.5964E-03     20.8352E-03
             306             921     15.5964E-03     20.8352E-03
             324             922     26.1814E-03     33.7590E-03
             323             922     26.1814E-03     33.7590E-03
             307             922     26.1814E-03     33.7590E-03
             308             922     26.1814E-03     33.7590E-03
             308             923     38.1568E-03     46.3870E-03
             325             923     38.1568E-03     46.3870E-03
             309             923     38.1568E-03     46.3870E-03
             324             923     38.1568E-03     46.3870E-03
             310             924     50.3750E-03     58.9194E-03
             325             924     50.3750E-03     58.9194E-03
             326             924     50.3750E-03     58.9194E-03
             309             924     50.3750E-03     58.9194E-03
             326             925     62.6941E-03     71.3180E-03
             311             925     62.6941E-03     71.3180E-03
             310             925     62.6941E-03     71.3180E-03
             327             925     62.6941E-03     71.3180E-03
             311             926     75.0562E-03     83.6718E-03
             327             926     75.0562E-03     83.6718E-03
             328             926     75.0562E-03     83.6718E-03
             312             926     75.0562E-03     83.6718E-03
             312             927     87.4137E-03     95.9878E-03
             328             927     87.4137E-03     95.9878E-03
             329             927     87.4137E-03     95.9878E-03
             313             927     87.4137E-03     95.9878E-03
             329             928     99.7572E-03     108.252E-03
             330             928     99.7572E-03     108.252E-03
             313             928     99.7572E-03     108.252E-03
             314             928     99.7572E-03     108.252E-03
             314             929     112.220E-03     120.570E-03
             330             929     112.220E-03     120.570E-03
             315             929     112.220E-03     120.570E-03
             331             929     112.220E-03     120.570E-03
             316             930     124.866E-03     133.028E-03
             315             930     124.866E-03     133.028E-03
             331             930     124.866E-03     133.028E-03
             332             930     124.866E-03     133.028E-03
             332             931     138.485E-03     146.325E-03
             316             931     138.485E-03     146.325E-03
             333             931     138.485E-03     146.325E-03
             317             931     138.485E-03     146.325E-03
             317             932     153.653E-03     161.193E-03
             333             932     153.653E-03     161.193E-03
             334             932     153.653E-03     161.193E-03
             318             932     153.653E-03     161.193E-03
             318             933     174.113E-03     181.487E-03
             334             933     174.113E-03     181.487E-03
             335             933     174.113E-03     181.487E-03
             319             933     174.113E-03     181.487E-03
             319             934     206.563E-03     212.082E-03
             335             934     206.563E-03     212.082E-03
             320             934     206.563E-03     212.082E-03
             336             934     206.563E-03     212.082E-03
             338             935     28.0636E-03     32.0871E-03
             337             935     28.0636E-03     32.0871E-03
             321             935     28.0636E-03     32.0871E-03
             322             935     28.0636E-03     32.0871E-03
             338             936     34.7549E-03     38.5002E-03
             339             936     34.7549E-03     38.5002E-03
             323             936     34.7549E-03     38.5002E-03
             322             936     34.7549E-03     38.5002E-03
             324             937     45.6235E-03     49.5503E-03
             340             937     45.6235E-03     49.5503E-03
             339             937     45.6235E-03     49.5503E-03
             323             937     45.6235E-03     49.5503E-03
             340             938     57.7763E-03     61.9315E-03
             324             938     57.7763E-03     61.9315E-03
             325             938     57.7763E-03     61.9315E-03
             341             938     57.7763E-03     61.9315E-03
             325             939     70.6184E-03     74.8227E-03
             326             939     70.6184E-03     74.8227E-03
             341             939     70.6184E-03     74.8227E-03
             342             939     70.6184E-03     74.8227E-03
             342             940     83.8613E-03     88.0452E-03
             343             940     83.8613E-03     88.0452E-03
             326             940     83.8613E-03     88.0452E-03
             327             940     83.8613E-03     88.0452E-03
             343             941     97.3371E-03     101.435E-03
             328             941     97.3371E-03     101.435E-03
             327             941     97.3371E-03     101.435E-03
             344             941     97.3371E-03     101.435E-03
             329             942     110.839E-03     114.837E-03
             345             942     110.839E-03     114.837E-03
             344             942     110.839E-03     114.837E-03
             328             942     110.839E-03     114.837E-03
             346             943     124.347E-03     128.127E-03
             329             943     124.347E-03     128.127E-03
             330             943     124.347E-03     128.127E-03
             345             943     124.347E-03     128.127E-03
             347             944     137.669E-03     141.211E-03
             330             944     137.669E-03     141.211E-03
             346             944     137.669E-03     141.211E-03
             331             944     137.669E-03     141.211E-03
             332             945     150.924E-03     153.873E-03
             347             945     150.924E-03     153.873E-03
             331             945     150.924E-03     153.873E-03
             348             945     150.924E-03     153.873E-03
             333             946     163.915E-03     166.204E-03
             348             946     163.915E-03     166.204E-03
             332             946     163.915E-03     166.204E-03
             349             946     163.915E-03     166.204E-03
             334             947     177.122E-03     178.385E-03
             350             947     177.122E-03     178.385E-03
             349             947     177.122E-03     178.385E-03
             333             947     177.122E-03     178.385E-03
             351             948     190.465E-03     191.068E-03
             350             948     190.465E-03     191.068E-03
             335             948     190.465E-03     191.068E-03
             334             948     190.465E-03     191.068E-03
             352             949     207.719E-03     211.118E-03
             335             949     207.719E-03     211.118E-03
             351             949     207.719E-03     211.118E-03
             336             949     207.719E-03     211.118E-03
             337             950     44.3579E-03     50.3814E-03
             353             950     44.3579E-03     50.3814E-03
             338             950     44.3579E-03     50.3814E-03
             354             950     44.3579E-03     50.3814E-03
             339             951     51.5861E-03     53.7254E-03
             338             951     51.5861E-03     53.7254E-03
             354             951     51.5861E-03     53.7254E-03
             355             951     51.5861E-03     53.7254E-03
             339             952     62.6630E-03     62.7432E-03
             340             952     62.6630E-03     62.7432E-03
             356             952     62.6630E-03     62.7432E-03
             355             952     62.6630E-03     62.7432E-03
             340             953     75.5216E-03     75.1007E-03
             357             953     75.5216E-03     75.1007E-03
             341             953     75.5216E-03     75.1007E-03
             356             953     75.5216E-03     75.1007E-03
             341             954     89.5816E-03     89.0499E-03
             358             954     89.5816E-03     89.0499E-03
             357             954     89.5816E-03     89.0499E-03
             342             954     89.5816E-03     89.0499E-03
             359             955     104.475E-03     103.859E-03
             358             955     104.475E-03     103.859E-03
             342             955     104.475E-03     103.859E-03
             343             955     104.475E-03     103.859E-03
             344             956     119.792E-03     119.142E-03
             343             956     119.792E-03     119.142E-03
             360             956     119.792E-03     119.142E-03
             359             956     119.792E-03     119.142E-03
             360             957     135.376E-03     134.619E-03
             344             957     135.376E-03     134.619E-03
             361             957     135.376E-03     134.619E-03
             345             957     135.376E-03     134.619E-03
             362             958     150.980E-03     150.136E-03
             345             958     150.980E-03     150.136E-03
             346             958     150.980E-03     150.136E-03
             361             958     150.980E-03     150.136E-03
             347             959     166.518E-03     165.404E-03
             363             959     166.518E-03     165.404E-03
             362             959     166.518E-03     165.404E-03
             346             959     166.518E-03     165.404E-03
             347             960     181.616E-03     180.226E-03
             363             960     181.616E-03     180.226E-03
             348             960     181.616E-03     180.226E-03
             364             960     181.616E-03     180.226E-03
             348             961     195.805E-03     193.983E-03
             364             961     195.805E-03     193.983E-03
             349             961     195.805E-03     193.983E-03
             365             961     195.805E-03     193.983E-03
             365             962     208.359E-03     205.989E-03
             349             962     208.359E-03     205.989E-03
             366             962     208.359E-03     205.989E-03
             350             962     208.359E-03     205.989E-03
             350             963     217.463E-03     215.278E-03
             351             963     217.463E-03     215.278E-03
             367             963     217.463E-03     215.278E-03
             366             963     217.463E-03     215.278E-03
             367             964     221.760E-03     218.931E-03
             368             964     221.760E-03     218.931E-03
             352             964     221.760E-03     218.931E-03
             351             964     221.760E-03     218.931E-03
             353             965     38.2167E-03     39.9772E-03
             369             965     38.2167E-03     39.9772E-03
             370             965     38.2167E-03     39.9772E-03
             354             965     38.2167E-03     39.9772E-03
             370             966     43.2227E-03     46.9562E-03
             355             966     43.2227E-03     46.9562E-03
             354             966     43.2227E-03     46.9562E-03
             371             966     43.2227E-03     46.9562E-03
             356             967     54.9187E-03     57.1135E-03
             355             967     54.9187E-03     57.1135E-03
             371             967     54.9187E-03     57.1135E-03
             372             967     54.9187E-03     57.1135E-03
             356             968     69.2159E-03     70.6644E-03
             373             968     69.2159E-03     70.6644E-03
             372             968     69.2159E-03     70.6644E-03
             357             968     69.2159E-03     70.6644E-03
             373             969     84.6324E-03     85.8767E-03
             357             969     84.6324E-03     85.8767E-03
             358             969     84.6324E-03     85.8767E-03
             374             969     84.6324E-03     85.8767E-03
             358             970     100.732E-03     101.956E-03
             359             970     100.732E-03     101.956E-03
             375             970     100.732E-03     101.956E-03
             374             970     100.732E-03     101.956E-03
             375             971     117.248E-03     118.508E-03
             359             971     117.248E-03     118.508E-03
             376             971     117.248E-03     118.508E-03
             360             971     117.248E-03     118.508E-03
             361             972     134.064E-03     135.369E-03
             376             972     134.064E-03     135.369E-03
             377             972     134.064E-03     135.369E-03
             360             972     134.064E-03     135.369E-03
             361             973     151.125E-03     152.438E-03
             377             973     151.125E-03     152.438E-03
             362             973     151.125E-03     152.438E-03
             378             973     151.125E-03     152.438E-03
             362             974     168.254E-03     169.673E-03
             363             974     168.254E-03     169.673E-03
             379             974     168.254E-03     169.673E-03
             378             974     168.254E-03     169.673E-03
             379             975     185.450E-03     186.937E-03
             363             975     185.450E-03     186.937E-03
             380             975     185.450E-03     186.937E-03
             364             975     185.450E-03     186.937E-03
             365             976     202.115E-03     203.995E-03
             364             976     202.115E-03     203.995E-03
             380             976     202.115E-03     203.995E-03
             381             976     202.115E-03     203.995E-03
             382             977     217.204E-03     219.954E-03
             365             977     217.204E-03     219.954E-03
             366             977     217.204E-03     219.954E-03
             381             977     217.204E-03     219.954E-03
             383             978     229.494E-03     232.974E-03
             367             978     229.494E-03     232.974E-03
             366             978     229.494E-03     232.974E-03
             382             978     229.494E-03     232.974E-03
             367             979     238.664E-03     242.036E-03
             368             979     238.664E-03     242.036E-03
             383             979     238.664E-03     242.036E-03
             384             979     238.664E-03     242.036E-03
             370             980     30.1349E-03     29.1037E-03
             369             980     30.1349E-03     29.1037E-03
             386             980     30.1349E-03     29.1037E-03
             385             980     30.1349E-03     29.1037E-03
             387             981     36.3072E-03     39.3168E-03
             371             981     36.3072E-03     39.3168E-03
             386             981     36.3072E-03     39.3168E-03
             370             981     36.3072E-03     39.3168E-03
             387             982     48.4528E-03     52.4242E-03
             372             982     48.4528E-03     52.4242E-03
             371             982     48.4528E-03     52.4242E-03
             388             982     48.4528E-03     52.4242E-03
             372             983     63.9467E-03     67.3514E-03
             388             983     63.9467E-03     67.3514E-03
             389             983     63.9467E-03     67.3514E-03
             373             983     63.9467E-03     67.3514E-03
             389             984     80.4461E-03     83.7135E-03
             374             984     80.4461E-03     83.7135E-03
             390             984     80.4461E-03     83.7135E-03
             373             984     80.4461E-03     83.7135E-03
             374             985     97.4270E-03     100.708E-03
             390             985     97.4270E-03     100.708E-03
             391             985     97.4270E-03     100.708E-03
             375             985     97.4270E-03     100.708E-03
             391             986     114.790E-03     118.132E-03
             392             986     114.790E-03     118.132E-03
             375             986     114.790E-03     118.132E-03
             376             986     114.790E-03     118.132E-03
             392             987     132.412E-03     135.860E-03
             393             987     132.412E-03     135.860E-03
             377             987     132.412E-03     135.860E-03
             376             987     132.412E-03     135.860E-03
             378             988     150.277E-03     153.879E-03
             393             988     150.277E-03     153.879E-03
             394             988     150.277E-03     153.879E-03
             377             988     150.277E-03     153.879E-03
             394             989     168.411E-03     172.257E-03
             378             989     168.411E-03     172.257E-03
             395             989     168.411E-03     172.257E-03
             379             989     168.411E-03     172.257E-03
             395             990     186.659E-03     190.972E-03
             396             990     186.659E-03     190.972E-03
             380             990     186.659E-03     190.972E-03
             379             990     186.659E-03     190.972E-03
             380             991     205.240E-03     210.118E-03
             396             991     205.240E-03     210.118E-03
             381             991     205.240E-03     210.118E-03
             397             991     205.240E-03     210.118E-03
             382             992     223.270E-03     229.023E-03
             381             992     223.270E-03     229.023E-03
             397             992     223.270E-03     229.023E-03
             398             992     223.270E-03     229.023E-03
             383             993     239.208E-03     245.781E-03
             382             993     239.208E-03     245.781E-03
             399             993     239.208E-03     245.781E-03
             398             993     239.208E-03     245.781E-03
             384             994     254.050E-03     258.836E-03
             400             994     254.050E-03     258.836E-03
             399             994     254.050E-03     258.836E-03
             383             994     254.050E-03     258.836E-03
             401             995     21.8584E-03     20.7049E-03
             386             995     21.8584E-03     20.7049E-03
             385             995     21.8584E-03     20.7049E-03
             402             995     21.8584E-03     20.7049E-03
             386             996     29.0939E-03     32.6558E-03
             403             996     29.0939E-03     32.6558E-03
             402             996     29.0939E-03     32.6558E-03
             387             996     29.0939E-03     32.6558E-03
             388             997     43.2394E-03     48.3671E-03
             387             997     43.2394E-03     48.3671E-03
             404             997     43.2394E-03     48.3671E-03
             403             997     43.2394E-03     48.3671E-03
             388             998     59.5759E-03     65.0000E-03
             404             998     59.5759E-03     65.0000E-03
             405             998     59.5759E-03     65.0000E-03
             389             998     59.5759E-03     65.0000E-03
             390             999     76.7383E-03     82.1584E-03
             406             999     76.7383E-03     82.1584E-03
             389             999     76.7383E-03     82.1584E-03
             405             999     76.7383E-03     82.1584E-03
             406            1000     94.2839E-03     99.7411E-03
             391            1000     94.2839E-03     99.7411E-03
             390            1000     94.2839E-03     99.7411E-03
             407            1000     94.2839E-03     99.7411E-03
             408            1001     112.026E-03     117.559E-03
             392            1001     112.026E-03     117.559E-03
             407            1001     112.026E-03     117.559E-03
             391            1001     112.026E-03     117.559E-03
             408            1002     129.976E-03     135.598E-03
             392            1002     129.976E-03     135.598E-03
             393            1002     129.976E-03     135.598E-03
             409            1002     129.976E-03     135.598E-03
             394            1003     148.090E-03     153.890E-03
             393            1003     148.090E-03     153.890E-03
             409            1003     148.090E-03     153.890E-03
             410            1003     148.090E-03     153.890E-03
             395            1004     166.438E-03     172.481E-03
             410            1004     166.438E-03     172.481E-03
             411            1004     166.438E-03     172.481E-03
             394            1004     166.438E-03     172.481E-03
             395            1005     185.134E-03     191.658E-03
             412            1005     185.134E-03     191.658E-03
             396            1005     185.134E-03     191.658E-03
             411            1005     185.134E-03     191.658E-03
             397            1006     204.280E-03     211.413E-03
             413            1006     204.280E-03     211.413E-03
             412            1006     204.280E-03     211.413E-03
             396            1006     204.280E-03     211.413E-03
             397            1007     225.224E-03     232.452E-03
             413            1007     225.224E-03     232.452E-03
             414            1007     225.224E-03     232.452E-03
             398            1007     225.224E-03     232.452E-03
             415            1008     246.921E-03     253.709E-03
             398            1008     246.921E-03     253.709E-03
             399            1008     246.921E-03     253.709E-03
             414            1008     246.921E-03     253.709E-03
             399            1009     266.488E-03     272.635E-03
             416            1009     266.488E-03     272.635E-03
             400            1009     266.488E-03     272.635E-03
             415            1009     266.488E-03     272.635E-03
             402            1010     15.6374E-03     13.2751E-03
             401            1010     15.6374E-03     13.2751E-03
             417            1010     15.6374E-03     13.2751E-03
             418            1010     15.6374E-03     13.2751E-03
             418            1011     23.1997E-03     28.0442E-03
             402            1011     23.1997E-03     28.0442E-03
             403            1011     23.1997E-03     28.0442E-03
             419            1011     23.1997E-03     28.0442E-03
             420            1012     38.9909E-03     45.7486E-03
             419            1012     38.9909E-03     45.7486E-03
             403            1012     38.9909E-03     45.7486E-03
             404            1012     38.9909E-03     45.7486E-03
             404            1013     55.9841E-03     63.5191E-03
             405            1013     55.9841E-03     63.5191E-03
             421            1013     55.9841E-03     63.5191E-03
             420            1013     55.9841E-03     63.5191E-03
             406            1014     73.5038E-03     81.1835E-03
             421            1014     73.5038E-03     81.1835E-03
             422            1014     73.5038E-03     81.1835E-03
             405            1014     73.5038E-03     81.1835E-03
             422            1015     91.1722E-03     98.9198E-03
             423            1015     91.1722E-03     98.9198E-03
             407            1015     91.1722E-03     98.9198E-03
             406            1015     91.1722E-03     98.9198E-03
             408            1016     108.933E-03     116.717E-03
             407            1016     108.933E-03     116.717E-03
             424            1016     108.933E-03     116.717E-03
             423            1016     108.933E-03     116.717E-03
             425            1017     126.747E-03     134.570E-03
             409            1017     126.747E-03     134.570E-03
             408            1017     126.747E-03     134.570E-03
             424            1017     126.747E-03     134.570E-03
             409            1018     144.669E-03     152.512E-03
             410            1018     144.669E-03     152.512E-03
             425            1018     144.669E-03     152.512E-03
             426            1018     144.669E-03     152.512E-03
             411            1019     162.670E-03     170.658E-03
             426            1019     162.670E-03     170.658E-03
             427            1019     162.670E-03     170.658E-03
             410            1019     162.670E-03     170.658E-03
             411            1020     181.075E-03     189.178E-03
             427            1020     181.075E-03     189.178E-03
             428            1020     181.075E-03     189.178E-03
             412            1020     181.075E-03     189.178E-03
             428            1021     200.216E-03     208.643E-03
             429            1021     200.216E-03     208.643E-03
             413            1021     200.216E-03     208.643E-03
             412            1021     200.216E-03     208.643E-03
             413            1022     221.248E-03     229.768E-03
             429            1022     221.248E-03     229.768E-03
             414            1022     221.248E-03     229.768E-03
             430            1022     221.248E-03     229.768E-03
             415            1023     248.575E-03     255.339E-03
             414            1023     248.575E-03     255.339E-03
             430            1023     248.575E-03     255.339E-03
             431            1023     248.575E-03     255.339E-03
             416            1024     277.922E-03     281.320E-03
             415            1024     277.922E-03     281.320E-03
             432            1024     277.922E-03     281.320E-03
             431            1024     277.922E-03     281.320E-03
             418            1025     12.0781E-03     11.9174E-03
             433            1025     12.0781E-03     11.9174E-03
             434            1025     12.0781E-03     11.9174E-03
             417            1025     12.0781E-03     11.9174E-03
             419            1026     19.3984E-03     26.4522E-03
             434            1026     19.3984E-03     26.4522E-03
             435            1026     19.3984E-03     26.4522E-03
             418            1026     19.3984E-03     26.4522E-03
             419            1027     36.0994E-03     45.2946E-03
             420            1027     36.0994E-03     45.2946E-03
             435            1027     36.0994E-03     45.2946E-03
             436            1027     36.0994E-03     45.2946E-03
             437            1028     53.4517E-03     63.2369E-03
             420            1028     53.4517E-03     63.2369E-03
             421            1028     53.4517E-03     63.2369E-03
             436            1028     53.4517E-03     63.2369E-03
             437            1029     70.8767E-03     80.9609E-03
             422            1029     70.8767E-03     80.9609E-03
             438            1029     70.8767E-03     80.9609E-03
             421            1029     70.8767E-03     80.9609E-03
             422            1030     88.3091E-03     98.4475E-03
             438            1030     88.3091E-03     98.4475E-03
             423            1030     88.3091E-03     98.4475E-03
             439            1030     88.3091E-03     98.4475E-03
             423            1031     105.730E-03     115.840E-03
             440            1031     105.730E-03     115.840E-03
             439            1031     105.730E-03     115.840E-03
             424            1031     105.730E-03     115.840E-03
             425            1032     123.103E-03     133.139E-03
             440            1032     123.103E-03     133.139E-03
             424            1032     123.103E-03     133.139E-03
             441            1032     123.103E-03     133.139E-03
             441            1033     140.416E-03     150.340E-03
             426            1033     140.416E-03     150.340E-03
             425            1033     140.416E-03     150.340E-03
             442            1033     140.416E-03     150.340E-03
             427            1034     157.836E-03     167.543E-03
             426            1034     157.836E-03     167.543E-03
             443            1034     157.836E-03     167.543E-03
             442            1034     157.836E-03     167.543E-03
             428            1035     175.414E-03     184.849E-03
             443            1035     175.414E-03     184.849E-03
             444            1035     175.414E-03     184.849E-03
             427            1035     175.414E-03     184.849E-03
             429            1036     194.009E-03     202.995E-03
             444            1036     194.009E-03     202.995E-03
             445            1036     194.009E-03     202.995E-03
             428            1036     194.009E-03     202.995E-03
             445            1037     214.211E-03     222.752E-03
             446            1037     214.211E-03     222.752E-03
             430            1037     214.211E-03     222.752E-03
             429            1037     214.211E-03     222.752E-03
             430            1038     240.079E-03     248.446E-03
             446            1038     240.079E-03     248.446E-03
             431            1038     240.079E-03     248.446E-03
             447            1038     240.079E-03     248.446E-03
             431            1039     278.989E-03     285.030E-03
             448            1039     278.989E-03     285.030E-03
             447            1039     278.989E-03     285.030E-03
             432            1039     278.989E-03     285.030E-03
             434            1040     29.3406E-03     35.2869E-03
             449            1040     29.3406E-03     35.2869E-03
             450            1040     29.3406E-03     35.2869E-03
             433            1040     29.3406E-03     35.2869E-03
             435            1041     39.6933E-03     44.3290E-03
             450            1041     39.6933E-03     44.3290E-03
             451            1041     39.6933E-03     44.3290E-03
             434            1041     39.6933E-03     44.3290E-03
             436            1042     55.5471E-03     60.2891E-03
             451            1042     55.5471E-03     60.2891E-03
             452            1042     55.5471E-03     60.2891E-03
             435            1042     55.5471E-03     60.2891E-03
             436            1043     72.6484E-03     77.7427E-03
             452            1043     72.6484E-03     77.7427E-03
             453            1043     72.6484E-03     77.7427E-03
             437            1043     72.6484E-03     77.7427E-03
             453            1044     90.5052E-03     95.6581E-03
             454            1044     90.5052E-03     95.6581E-03
             437            1044     90.5052E-03     95.6581E-03
             438            1044     90.5052E-03     95.6581E-03
             454            1045     108.811E-03     113.964E-03
             455            1045     108.811E-03     113.964E-03
             438            1045     108.811E-03     113.964E-03
             439            1045     108.811E-03     113.964E-03
             456            1046     127.295E-03     132.347E-03
             440            1046     127.295E-03     132.347E-03
             439            1046     127.295E-03     132.347E-03
             455            1046     127.295E-03     132.347E-03
             456            1047     145.790E-03     150.791E-03
             441            1047     145.790E-03     150.791E-03
             457            1047     145.790E-03     150.791E-03
             440            1047     145.790E-03     150.791E-03
             458            1048     164.247E-03     169.044E-03
             441            1048     164.247E-03     169.044E-03
             457            1048     164.247E-03     169.044E-03
             442            1048     164.247E-03     169.044E-03
             443            1049     182.521E-03     187.099E-03
             458            1049     182.521E-03     187.099E-03
             459            1049     182.521E-03     187.099E-03
             442            1049     182.521E-03     187.099E-03
             460            1050     200.784E-03     204.765E-03
             443            1050     200.784E-03     204.765E-03
             444            1050     200.784E-03     204.765E-03
             459            1050     200.784E-03     204.765E-03
             461            1051     218.678E-03     221.927E-03
             444            1051     218.678E-03     221.927E-03
             460            1051     218.678E-03     221.927E-03
             445            1051     218.678E-03     221.927E-03
             445            1052     237.047E-03     238.993E-03
             446            1052     237.047E-03     238.993E-03
             461            1052     237.047E-03     238.993E-03
             462            1052     237.047E-03     238.993E-03
             447            1053     255.136E-03     256.409E-03
             462            1053     255.136E-03     256.409E-03
             463            1053     255.136E-03     256.409E-03
             446            1053     255.136E-03     256.409E-03
             463            1054     278.144E-03     283.022E-03
             464            1054     278.144E-03     283.022E-03
             447            1054     278.144E-03     283.022E-03
             448            1054     278.144E-03     283.022E-03
             465            1055     45.4643E-03     51.7510E-03
             466            1055     45.4643E-03     51.7510E-03
             449            1055     45.4643E-03     51.7510E-03
             450            1055     45.4643E-03     51.7510E-03
             450            1056     55.3195E-03     57.5607E-03
             466            1056     55.3195E-03     57.5607E-03
             467            1056     55.3195E-03     57.5607E-03
             451            1056     55.3195E-03     57.5607E-03
             451            1057     70.8544E-03     71.3997E-03
             468            1057     70.8544E-03     71.3997E-03
             452            1057     70.8544E-03     71.3997E-03
             467            1057     70.8544E-03     71.3997E-03
             468            1058     88.7024E-03     88.9416E-03
             452            1058     88.7024E-03     88.9416E-03
             453            1058     88.7024E-03     88.9416E-03
             469            1058     88.7024E-03     88.9416E-03
             470            1059     107.979E-03     108.142E-03
             453            1059     107.979E-03     108.142E-03
             454            1059     107.979E-03     108.142E-03
             469            1059     107.979E-03     108.142E-03
             470            1060     128.032E-03     128.196E-03
             454            1060     128.032E-03     128.196E-03
             455            1060     128.032E-03     128.196E-03
             471            1060     128.032E-03     128.196E-03
             455            1061     148.515E-03     148.655E-03
             456            1061     148.515E-03     148.655E-03
             472            1061     148.515E-03     148.655E-03
             471            1061     148.515E-03     148.655E-03
             457            1062     169.186E-03     169.337E-03
             473            1062     169.186E-03     169.337E-03
             456            1062     169.186E-03     169.337E-03
             472            1062     169.186E-03     169.337E-03
             458            1063     189.958E-03     190.024E-03
             474            1063     189.958E-03     190.024E-03
             457            1063     189.958E-03     190.024E-03
             473            1063     189.958E-03     190.024E-03
             474            1064     210.609E-03     210.623E-03
             475            1064     210.609E-03     210.623E-03
             458            1064     210.609E-03     210.623E-03
             459            1064     210.609E-03     210.623E-03
             475            1065     231.095E-03     230.812E-03
             476            1065     231.095E-03     230.812E-03
             460            1065     231.095E-03     230.812E-03
             459            1065     231.095E-03     230.812E-03
             460            1066     250.954E-03     250.329E-03
             476            1066     250.954E-03     250.329E-03
             477            1066     250.954E-03     250.329E-03
             461            1066     250.954E-03     250.329E-03
             477            1067     269.005E-03     268.147E-03
             462            1067     269.005E-03     268.147E-03
             461            1067     269.005E-03     268.147E-03
             478            1067     269.005E-03     268.147E-03
             462            1068     284.330E-03     283.161E-03
             478            1068     284.330E-03     283.161E-03
             479            1068     284.330E-03     283.161E-03
             463            1068     284.330E-03     283.161E-03
             464            1069     294.290E-03     292.677E-03
             479            1069     294.290E-03     292.677E-03
             480            1069     294.290E-03     292.677E-03
             463            1069     294.290E-03     292.677E-03
             481            1070     37.4585E-03     38.7512E-03
             466            1070     37.4585E-03     38.7512E-03
             465            1070     37.4585E-03     38.7512E-03
             482            1070     37.4585E-03     38.7512E-03
             482            1071     44.9352E-03     49.4263E-03
             483            1071     44.9352E-03     49.4263E-03
             467            1071     44.9352E-03     49.4263E-03
             466            1071     44.9352E-03     49.4263E-03
             484            1072     61.5773E-03     64.8346E-03
             483            1072     61.5773E-03     64.8346E-03
             467            1072     61.5773E-03     64.8346E-03
             468            1072     61.5773E-03     64.8346E-03
             485            1073     81.3137E-03     83.9900E-03
             484            1073     81.3137E-03     83.9900E-03
             469            1073     81.3137E-03     83.9900E-03
             468            1073     81.3137E-03     83.9900E-03
             469            1074     102.006E-03     104.686E-03
             485            1074     102.006E-03     104.686E-03
             470            1074     102.006E-03     104.686E-03
             486            1074     102.006E-03     104.686E-03
             487            1075     123.294E-03     126.043E-03
             470            1075     123.294E-03     126.043E-03
             486            1075     123.294E-03     126.043E-03
             471            1075     123.294E-03     126.043E-03
             471            1076     144.930E-03     147.781E-03
             487            1076     144.930E-03     147.781E-03
             488            1076     144.930E-03     147.781E-03
             472            1076     144.930E-03     147.781E-03
             472            1077     166.854E-03     169.741E-03
             488            1077     166.854E-03     169.741E-03
             489            1077     166.854E-03     169.741E-03
             473            1077     166.854E-03     169.741E-03
             473            1078     188.959E-03     191.915E-03
             490            1078     188.959E-03     191.915E-03
             489            1078     188.959E-03     191.915E-03
             474            1078     188.959E-03     191.915E-03
             475            1079     211.319E-03     214.329E-03
             490            1079     211.319E-03     214.329E-03
             491            1079     211.319E-03     214.329E-03
             474            1079     211.319E-03     214.329E-03
             475            1080     233.734E-03     236.984E-03
             476            1080     233.734E-03     236.984E-03
             492            1080     233.734E-03     236.984E-03
             491            1080     233.734E-03     236.984E-03
             477            1081     256.451E-03     260.008E-03
             492            1081     256.451E-03     260.008E-03
             476            1081     256.451E-03     260.008E-03
             493            1081     256.451E-03     260.008E-03
             477            1082     278.413E-03     282.886E-03
             494            1082     278.413E-03     282.886E-03
             493            1082     278.413E-03     282.886E-03
             478            1082     278.413E-03     282.886E-03
             495            1083     297.678E-03     303.664E-03
             478            1083     297.678E-03     303.664E-03
             479            1083     297.678E-03     303.664E-03
             494            1083     297.678E-03     303.664E-03
             479            1084     313.960E-03     318.150E-03
             495            1084     313.960E-03     318.150E-03
             480            1084     313.960E-03     318.150E-03
             496            1084     313.960E-03     318.150E-03
             481            1085     26.9347E-03     26.1919E-03
             498            1085     26.9347E-03     26.1919E-03
             482            1085     26.9347E-03     26.1919E-03
             497            1085     26.9347E-03     26.1919E-03
             499            1086     36.2724E-03     41.3027E-03
             483            1086     36.2724E-03     41.3027E-03
             498            1086     36.2724E-03     41.3027E-03
             482            1086     36.2724E-03     41.3027E-03
             483            1087     54.3598E-03     60.1266E-03
             484            1087     54.3598E-03     60.1266E-03
             500            1087     54.3598E-03     60.1266E-03
             499            1087     54.3598E-03     60.1266E-03
             485            1088     75.4409E-03     80.9056E-03
             501            1088     75.4409E-03     80.9056E-03
             484            1088     75.4409E-03     80.9056E-03
             500            1088     75.4409E-03     80.9056E-03
             486            1089     97.1652E-03     102.676E-03
             501            1089     97.1652E-03     102.676E-03
             502            1089     97.1652E-03     102.676E-03
             485            1089     97.1652E-03     102.676E-03
             486            1090     119.273E-03     124.881E-03
             503            1090     119.273E-03     124.881E-03
             502            1090     119.273E-03     124.881E-03
             487            1090     119.273E-03     124.881E-03
             503            1091     141.645E-03     147.332E-03
             504            1091     141.645E-03     147.332E-03
             488            1091     141.645E-03     147.332E-03
             487            1091     141.645E-03     147.332E-03
             488            1092     164.218E-03     169.982E-03
             505            1092     164.218E-03     169.982E-03
             489            1092     164.218E-03     169.982E-03
             504            1092     164.218E-03     169.982E-03
             490            1093     187.014E-03     192.861E-03
             505            1093     187.014E-03     192.861E-03
             506            1093     187.014E-03     192.861E-03
             489            1093     187.014E-03     192.861E-03
             490            1094     210.012E-03     216.040E-03
             506            1094     210.012E-03     216.040E-03
             491            1094     210.012E-03     216.040E-03
             507            1094     210.012E-03     216.040E-03
             491            1095     233.382E-03     239.807E-03
             492            1095     233.382E-03     239.807E-03
             508            1095     233.382E-03     239.807E-03
             507            1095     233.382E-03     239.807E-03
             508            1096     256.949E-03     264.208E-03
             492            1096     256.949E-03     264.208E-03
             493            1096     256.949E-03     264.208E-03
             509            1096     256.949E-03     264.208E-03
             493            1097     282.215E-03     290.002E-03
             509            1097     282.215E-03     290.002E-03
             494            1097     282.215E-03     290.002E-03
             510            1097     282.215E-03     290.002E-03
             495            1098     307.225E-03     315.322E-03
             511            1098     307.225E-03     315.322E-03
             510            1098     307.225E-03     315.322E-03
             494            1098     307.225E-03     315.322E-03
             511            1099     328.377E-03     337.082E-03
             512            1099     328.377E-03     337.082E-03
             496            1099     328.377E-03     337.082E-03
             495            1099     328.377E-03     337.082E-03
             514            1100     18.7142E-03     17.1341E-03
             498            1100     18.7142E-03     17.1341E-03
             497            1100     18.7142E-03     17.1341E-03
             513            1100     18.7142E-03     17.1341E-03
             499            1101     29.0342E-03     35.1620E-03
             514            1101     29.0342E-03     35.1620E-03
             515            1101     29.0342E-03     35.1620E-03
             498            1101     29.0342E-03     35.1620E-03
             499            1102     49.3070E-03     57.4568E-03
             515            1102     49.3070E-03     57.4568E-03
             516            1102     49.3070E-03     57.4568E-03
             500            1102     49.3070E-03     57.4568E-03
             501            1103     71.0309E-03     79.5371E-03
             516            1103     71.0309E-03     79.5371E-03
             517            1103     71.0309E-03     79.5371E-03
             500            1103     71.0309E-03     79.5371E-03
             501            1104     93.3397E-03     101.896E-03
             517            1104     93.3397E-03     101.896E-03
             518            1104     93.3397E-03     101.896E-03
             502            1104     93.3397E-03     101.896E-03
             502            1105     115.782E-03     124.407E-03
             519            1105     115.782E-03     124.407E-03
             518            1105     115.782E-03     124.407E-03
             503            1105     115.782E-03     124.407E-03
             503            1106     138.332E-03     147.001E-03
             519            1106     138.332E-03     147.001E-03
             504            1106     138.332E-03     147.001E-03
             520            1106     138.332E-03     147.001E-03
             504            1107     160.973E-03     169.664E-03
             521            1107     160.973E-03     169.664E-03
             505            1107     160.973E-03     169.664E-03
             520            1107     160.973E-03     169.664E-03
             506            1108     183.711E-03     192.425E-03
             505            1108     183.711E-03     192.425E-03
             521            1108     183.711E-03     192.425E-03
             522            1108     183.711E-03     192.425E-03
             507            1109     206.536E-03     215.355E-03
             522            1109     206.536E-03     215.355E-03
             523            1109     206.536E-03     215.355E-03
             506            1109     206.536E-03     215.355E-03
             523            1110     229.591E-03     238.623E-03
             524            1110     229.591E-03     238.623E-03
             508            1110     229.591E-03     238.623E-03
             507            1110     229.591E-03     238.623E-03
             509            1111     253.186E-03     262.733E-03
             524            1111     253.186E-03     262.733E-03
             525            1111     253.186E-03     262.733E-03
             508            1111     253.186E-03     262.733E-03
             525            1112     278.071E-03     288.185E-03
             526            1112     278.071E-03     288.185E-03
             510            1112     278.071E-03     288.185E-03
             509            1112     278.071E-03     288.185E-03
             527            1113     308.778E-03     317.740E-03
             511            1113     308.778E-03     317.740E-03
             510            1113     308.778E-03     317.740E-03
             526            1113     308.778E-03     317.740E-03
             512            1114     340.991E-03     345.405E-03
             511            1114     340.991E-03     345.405E-03
             528            1114     340.991E-03     345.405E-03
             527            1114     340.991E-03     345.405E-03
             530            1115     14.5600E-03     15.3086E-03
             529            1115     14.5600E-03     15.3086E-03
             514            1115     14.5600E-03     15.3086E-03
             513            1115     14.5600E-03     15.3086E-03
             531            1116     25.1517E-03     34.1382E-03
             515            1116     25.1517E-03     34.1382E-03
             530            1116     25.1517E-03     34.1382E-03
             514            1116     25.1517E-03     34.1382E-03
             516            1117     46.4599E-03     57.4059E-03
             532            1117     46.4599E-03     57.4059E-03
             531            1117     46.4599E-03     57.4059E-03
             515            1117     46.4599E-03     57.4059E-03
             533            1118     68.4300E-03     80.0702E-03
             532            1118     68.4300E-03     80.0702E-03
             516            1118     68.4300E-03     80.0702E-03
             517            1118     68.4300E-03     80.0702E-03
             533            1119     90.6649E-03     102.400E-03
             518            1119     90.6649E-03     102.400E-03
             517            1119     90.6649E-03     102.400E-03
             534            1119     90.6649E-03     102.400E-03
             518            1120     112.922E-03     124.666E-03
             519            1120     112.922E-03     124.666E-03
             534            1120     112.922E-03     124.666E-03
             535            1120     112.922E-03     124.666E-03
             520            1121     135.148E-03     146.849E-03
             519            1121     135.148E-03     146.849E-03
             535            1121     135.148E-03     146.849E-03
             536            1121     135.148E-03     146.849E-03
             520            1122     157.311E-03     168.974E-03
             521            1122     157.311E-03     168.974E-03
             537            1122     157.311E-03     168.974E-03
             536            1122     157.311E-03     168.974E-03
             521            1123     179.362E-03     190.950E-03
             538            1123     179.362E-03     190.950E-03
             522            1123     179.362E-03     190.950E-03
             537            1123     179.362E-03     190.950E-03
             522            1124     201.376E-03     212.853E-03
             523            1124     201.376E-03     212.853E-03
             538            1124     201.376E-03     212.853E-03
             539            1124     201.376E-03     212.853E-03
             539            1125     223.340E-03     234.615E-03
             540            1125     223.340E-03     234.615E-03
             523            1125     223.340E-03     234.615E-03
             524            1125     223.340E-03     234.615E-03
             540            1126     245.966E-03     256.836E-03
             525            1126     245.966E-03     256.836E-03
             524            1126     245.966E-03     256.836E-03
             541            1126     245.966E-03     256.836E-03
             525            1127     269.550E-03     280.098E-03
             526            1127     269.550E-03     280.098E-03
             542            1127     269.550E-03     280.098E-03
             541            1127     269.550E-03     280.098E-03
             526            1128     298.564E-03     308.578E-03
             542            1128     298.564E-03     308.578E-03
             543            1128     298.564E-03     308.578E-03
             527            1128     298.564E-03     308.578E-03
             527            1129     340.459E-03     347.665E-03
             528            1129     340.459E-03     347.665E-03
             544            1129     340.459E-03     347.665E-03
             543            1129     340.459E-03     347.665E-03
             994            1451     40.8361E-03     46.6756E-03
            1010            1451     40.8361E-03     46.6756E-03
            1011            1451     40.8361E-03     46.6756E-03
             995            1451     40.8361E-03     46.6756E-03
             996            1452     55.5059E-03     52.2480E-03
            1011            1452     55.5059E-03     52.2480E-03
            1012            1452     55.5059E-03     52.2480E-03
             995            1452     55.5059E-03     52.2480E-03
             997            1453     76.4272E-03     71.7601E-03
            1012            1453     76.4272E-03     71.7601E-03
            1013            1453     76.4272E-03     71.7601E-03
             996            1453     76.4272E-03     71.7601E-03
             997            1454     98.4745E-03     93.8932E-03
            1014            1454     98.4745E-03     93.8932E-03
            1013            1454     98.4745E-03     93.8932E-03
             998            1454     98.4745E-03     93.8932E-03
             999            1455     121.383E-03     117.135E-03
            1014            1455     121.383E-03     117.135E-03
            1015            1455     121.383E-03     117.135E-03
             998            1455     121.383E-03     117.135E-03
            1015            1456     144.613E-03     140.837E-03
            1016            1456     144.613E-03     140.837E-03
            1000            1456     144.613E-03     140.837E-03
             999            1456     144.613E-03     140.837E-03
            1000            1457     168.034E-03     164.750E-03
            1017            1457     168.034E-03     164.750E-03
            1001            1457     168.034E-03     164.750E-03
            1016            1457     168.034E-03     164.750E-03
            1001            1458     191.486E-03     188.837E-03
            1017            1458     191.486E-03     188.837E-03
            1002            1458     191.486E-03     188.837E-03
            1018            1458     191.486E-03     188.837E-03
            1019            1459     214.962E-03     212.829E-03
            1002            1459     214.962E-03     212.829E-03
            1003            1459     214.962E-03     212.829E-03
            1018            1459     214.962E-03     212.829E-03
            1003            1460     238.311E-03     236.877E-03
            1020            1460     238.311E-03     236.877E-03
            1019            1460     238.311E-03     236.877E-03
            1004            1460     238.311E-03     236.877E-03
            1004            1461     261.530E-03     260.572E-03
            1021            1461     261.530E-03     260.572E-03
            1020            1461     261.530E-03     260.572E-03
            1005            1461     261.530E-03     260.572E-03
            1005            1462     284.572E-03     284.114E-03
            1021            1462     284.572E-03     284.114E-03
            1022            1462     284.572E-03     284.114E-03
            1006            1462     284.572E-03     284.114E-03
            1022            1463     306.980E-03     306.901E-03
            1023            1463     306.980E-03     306.901E-03
            1007            1463     306.980E-03     306.901E-03
            1006            1463     306.980E-03     306.901E-03
            1023            1464     327.085E-03     327.396E-03
            1008            1464     327.085E-03     327.396E-03
            1007            1464     327.085E-03     327.396E-03
            1024            1464     327.085E-03     327.396E-03
            1009            1465     343.805E-03     345.262E-03
            1024            1465     343.805E-03     345.262E-03
            1008            1465     343.805E-03     345.262E-03
            1025            1465     343.805E-03     345.262E-03
            1027            1466     54.1088E-03     58.7268E-03
            1010            1466     54.1088E-03     58.7268E-03
            1011            1466     54.1088E-03     58.7268E-03
            1026            1466     54.1088E-03     58.7268E-03
            1012            1467     64.8652E-03     58.9333E-03
            1028            1467     64.8652E-03     58.9333E-03
            1027            1467     64.8652E-03     58.9333E-03
            1011            1467     64.8652E-03     58.9333E-03
            1029            1468     87.5934E-03     79.5538E-03
            1013            1468     87.5934E-03     79.5538E-03
            1012            1468     87.5934E-03     79.5538E-03
            1028            1468     87.5934E-03     79.5538E-03
            1014            1469     110.600E-03     102.821E-03
            1030            1469     110.600E-03     102.821E-03
            1029            1469     110.600E-03     102.821E-03
            1013            1469     110.600E-03     102.821E-03
            1014            1470     134.614E-03     127.201E-03
            1015            1470     134.614E-03     127.201E-03
            1030            1470     134.614E-03     127.201E-03
            1031            1470     134.614E-03     127.201E-03
            1031            1471     158.629E-03     151.918E-03
            1015            1471     158.629E-03     151.918E-03
            1016            1471     158.629E-03     151.918E-03
            1032            1471     158.629E-03     151.918E-03
            1017            1472     182.969E-03     176.950E-03
            1032            1472     182.969E-03     176.950E-03
            1016            1472     182.969E-03     176.950E-03
            1033            1472     182.969E-03     176.950E-03
            1034            1473     207.276E-03     202.043E-03
            1018            1473     207.276E-03     202.043E-03
            1017            1473     207.276E-03     202.043E-03
            1033            1473     207.276E-03     202.043E-03
            1035            1474     231.674E-03     227.164E-03
            1018            1474     231.674E-03     227.164E-03
            1034            1474     231.674E-03     227.164E-03
            1019            1474     231.674E-03     227.164E-03
            1035            1475     255.915E-03     252.259E-03
            1020            1475     255.915E-03     252.259E-03
            1036            1475     255.915E-03     252.259E-03
            1019            1475     255.915E-03     252.259E-03
            1036            1476     280.239E-03     277.268E-03
            1020            1476     280.239E-03     277.268E-03
            1021            1476     280.239E-03     277.268E-03
            1037            1476     280.239E-03     277.268E-03
            1038            1477     304.244E-03     302.203E-03
            1022            1477     304.244E-03     302.203E-03
            1021            1477     304.244E-03     302.203E-03
            1037            1477     304.244E-03     302.203E-03
            1039            1478     328.334E-03     326.875E-03
            1038            1478     328.334E-03     326.875E-03
            1023            1478     328.334E-03     326.875E-03
            1022            1478     328.334E-03     326.875E-03
            1023            1479     350.392E-03     349.676E-03
            1024            1479     350.392E-03     349.676E-03
            1040            1479     350.392E-03     349.676E-03
            1039            1479     350.392E-03     349.676E-03
            1024            1480     364.993E-03     366.234E-03
            1025            1480     364.993E-03     366.234E-03
            1041            1480     364.993E-03     366.234E-03
            1040            1480     364.993E-03     366.234E-03
            1043            1481     46.9935E-03     48.5276E-03
            1042            1481     46.9935E-03     48.5276E-03
            1027            1481     46.9935E-03     48.5276E-03
            1026            1481     46.9935E-03     48.5276E-03
            1044            1482     50.5601E-03     59.2590E-03
            1043            1482     50.5601E-03     59.2590E-03
            1027            1482     50.5601E-03     59.2590E-03
            1028            1482     50.5601E-03     59.2590E-03
            1045            1483     73.9697E-03     81.1574E-03
            1029            1483     73.9697E-03     81.1574E-03
            1028            1483     73.9697E-03     81.1574E-03
            1044            1483     73.9697E-03     81.1574E-03
            1030            1484     99.0790E-03     106.093E-03
            1029            1484     99.0790E-03     106.093E-03
            1046            1484     99.0790E-03     106.093E-03
            1045            1484     99.0790E-03     106.093E-03
            1031            1485     124.020E-03     131.220E-03
            1047            1485     124.020E-03     131.220E-03
            1030            1485     124.020E-03     131.220E-03
            1046            1485     124.020E-03     131.220E-03
            1032            1486     149.180E-03     156.411E-03
            1031            1486     149.180E-03     156.411E-03
            1047            1486     149.180E-03     156.411E-03
            1048            1486     149.180E-03     156.411E-03
            1049            1487     174.388E-03     181.630E-03
            1048            1487     174.388E-03     181.630E-03
            1033            1487     174.388E-03     181.630E-03
            1032            1487     174.388E-03     181.630E-03
            1033            1488     199.698E-03     206.876E-03
            1049            1488     199.698E-03     206.876E-03
            1050            1488     199.698E-03     206.876E-03
            1034            1488     199.698E-03     206.876E-03
            1051            1489     225.041E-03     232.227E-03
            1035            1489     225.041E-03     232.227E-03
            1050            1489     225.041E-03     232.227E-03
            1034            1489     225.041E-03     232.227E-03
            1052            1490     250.525E-03     257.630E-03
            1035            1490     250.525E-03     257.630E-03
            1036            1490     250.525E-03     257.630E-03
            1051            1490     250.525E-03     257.630E-03
            1036            1491     276.144E-03     283.314E-03
            1053            1491     276.144E-03     283.314E-03
            1052            1491     276.144E-03     283.314E-03
            1037            1491     276.144E-03     283.314E-03
            1038            1492     302.002E-03     309.390E-03
            1054            1492     302.002E-03     309.390E-03
            1053            1492     302.002E-03     309.390E-03
            1037            1492     302.002E-03     309.390E-03
            1038            1493     328.146E-03     336.201E-03
            1054            1493     328.146E-03     336.201E-03
            1039            1493     328.146E-03     336.201E-03
            1055            1493     328.146E-03     336.201E-03
            1040            1494     357.669E-03     365.907E-03
            1056            1494     357.669E-03     365.907E-03
            1055            1494     357.669E-03     365.907E-03
            1039            1494     357.669E-03     365.907E-03
            1041            1495     385.759E-03     390.184E-03
            1040            1495     385.759E-03     390.184E-03
            1056            1495     385.759E-03     390.184E-03
            1057            1495     385.759E-03     390.184E-03
            1043            1496     34.3378E-03     52.2698E-03
            1058            1496     34.3378E-03     52.2698E-03
            1059            1496     34.3378E-03     52.2698E-03
            1042            1496     34.3378E-03     52.2698E-03
            1059            1497     41.3219E-03     66.0988E-03
            1043            1497     41.3219E-03     66.0988E-03
            1044            1497     41.3219E-03     66.0988E-03
            1060            1497     41.3219E-03     66.0988E-03
            1060            1498     64.2019E-03     87.9320E-03
            1061            1498     64.2019E-03     87.9320E-03
            1045            1498     64.2019E-03     87.9320E-03
            1044            1498     64.2019E-03     87.9320E-03
            1062            1499     89.8425E-03     112.677E-03
            1046            1499     89.8425E-03     112.677E-03
            1045            1499     89.8425E-03     112.677E-03
            1061            1499     89.8425E-03     112.677E-03
            1047            1500     115.389E-03     137.573E-03
            1062            1500     115.389E-03     137.573E-03
            1063            1500     115.389E-03     137.573E-03
            1046            1500     115.389E-03     137.573E-03
            1063            1501     141.169E-03     162.510E-03
            1064            1501     141.169E-03     162.510E-03
            1048            1501     141.169E-03     162.510E-03
            1047            1501     141.169E-03     162.510E-03
            1065            1502     166.815E-03     187.292E-03
            1064            1502     166.815E-03     187.292E-03
            1049            1502     166.815E-03     187.292E-03
            1048            1502     166.815E-03     187.292E-03
            1049            1503     192.442E-03     212.132E-03
            1050            1503     192.442E-03     212.132E-03
            1065            1503     192.442E-03     212.132E-03
            1066            1503     192.442E-03     212.132E-03
            1066            1504     218.023E-03     236.820E-03
            1067            1504     218.023E-03     236.820E-03
            1050            1504     218.023E-03     236.820E-03
            1051            1504     218.023E-03     236.820E-03
            1068            1505     243.513E-03     261.546E-03
            1067            1505     243.513E-03     261.546E-03
            1051            1505     243.513E-03     261.546E-03
            1052            1505     243.513E-03     261.546E-03
            1068            1506     268.884E-03     286.008E-03
            1069            1506     268.884E-03     286.008E-03
            1053            1506     268.884E-03     286.008E-03
            1052            1506     268.884E-03     286.008E-03
            1053            1507     294.251E-03     310.538E-03
            1069            1507     294.251E-03     310.538E-03
            1054            1507     294.251E-03     310.538E-03
            1070            1507     294.251E-03     310.538E-03
            1071            1508     319.589E-03     335.207E-03
            1055            1508     319.589E-03     335.207E-03
            1054            1508     319.589E-03     335.207E-03
            1070            1508     319.589E-03     335.207E-03
            1056            1509     348.174E-03     362.830E-03
            1055            1509     348.174E-03     362.830E-03
            1071            1509     348.174E-03     362.830E-03
            1072            1509     348.174E-03     362.830E-03
            1073            1510     386.841E-03     398.434E-03
            1072            1510     386.841E-03     398.434E-03
            1056            1510     386.841E-03     398.434E-03
            1057            1510     386.841E-03     398.434E-03
            1753            2102     49.1997E-03     55.6558E-03
            1770            2102     49.1997E-03     55.6558E-03
            1754            2102     49.1997E-03     55.6558E-03
            1769            2102     49.1997E-03     55.6558E-03
            1754            2103     64.4921E-03     71.7489E-03
            1755            2103     64.4921E-03     71.7489E-03
            1770            2103     64.4921E-03     71.7489E-03
            1771            2103     64.4921E-03     71.7489E-03
            1755            2104     84.7979E-03     92.0119E-03
            1756            2104     84.7979E-03     92.0119E-03
            1772            2104     84.7979E-03     92.0119E-03
            1771            2104     84.7979E-03     92.0119E-03
            1757            2105     106.303E-03     113.418E-03
            1772            2105     106.303E-03     113.418E-03
            1756            2105     106.303E-03     113.418E-03
            1773            2105     106.303E-03     113.418E-03
            1773            2106     128.514E-03     135.513E-03
            1758            2106     128.514E-03     135.513E-03
            1757            2106     128.514E-03     135.513E-03
            1774            2106     128.514E-03     135.513E-03
            1774            2107     151.033E-03     158.002E-03
            1758            2107     151.033E-03     158.002E-03
            1759            2107     151.033E-03     158.002E-03
            1775            2107     151.033E-03     158.002E-03
            1759            2108     173.815E-03     180.659E-03
            1760            2108     173.815E-03     180.659E-03
            1776            2108     173.815E-03     180.659E-03
            1775            2108     173.815E-03     180.659E-03
            1760            2109     196.615E-03     203.583E-03
            1761            2109     196.615E-03     203.583E-03
            1776            2109     196.615E-03     203.583E-03
            1777            2109     196.615E-03     203.583E-03
            1761            2110     219.719E-03     226.396E-03
            1777            2110     219.719E-03     226.396E-03
            1778            2110     219.719E-03     226.396E-03
            1762            2110     219.719E-03     226.396E-03
            1762            2111     242.559E-03     249.634E-03
            1779            2111     242.559E-03     249.634E-03
            1778            2111     242.559E-03     249.634E-03
            1763            2111     242.559E-03     249.634E-03
            1763            2112     265.949E-03     272.426E-03
            1764            2112     265.949E-03     272.426E-03
            1780            2112     265.949E-03     272.426E-03
            1779            2112     265.949E-03     272.426E-03
            1765            2113     288.770E-03     295.936E-03
            1781            2113     288.770E-03     295.936E-03
            1780            2113     288.770E-03     295.936E-03
            1764            2113     288.770E-03     295.936E-03
            1766            2114     312.100E-03     318.619E-03
            1765            2114     312.100E-03     318.619E-03
            1781            2114     312.100E-03     318.619E-03
            1782            2114     312.100E-03     318.619E-03
            1767            2115     335.452E-03     341.997E-03
            1783            2115     335.452E-03     341.997E-03
            1782            2115     335.452E-03     341.997E-03
            1766            2115     335.452E-03     341.997E-03
            1768            2116     356.521E-03     364.137E-03
            1783            2116     356.521E-03     364.137E-03
            1784            2116     356.521E-03     364.137E-03
            1767            2116     356.521E-03     364.137E-03
            1769            2117     46.4449E-03     49.1211E-03
            1786            2117     46.4449E-03     49.1211E-03
            1770            2117     46.4449E-03     49.1211E-03
            1785            2117     46.4449E-03     49.1211E-03
            1770            2118     61.3533E-03     64.9123E-03
            1786            2118     61.3533E-03     64.9123E-03
            1787            2118     61.3533E-03     64.9123E-03
            1771            2118     61.3533E-03     64.9123E-03
            1788            2119     79.7270E-03     83.2646E-03
            1771            2119     79.7270E-03     83.2646E-03
            1772            2119     79.7270E-03     83.2646E-03
            1787            2119     79.7270E-03     83.2646E-03
            1772            2120     99.7846E-03     102.859E-03
            1773            2120     99.7846E-03     102.859E-03
            1789            2120     99.7846E-03     102.859E-03
            1788            2120     99.7846E-03     102.859E-03
            1773            2121     120.350E-03     123.202E-03
            1789            2121     120.350E-03     123.202E-03
            1774            2121     120.350E-03     123.202E-03
            1790            2121     120.350E-03     123.202E-03
            1790            2122     141.103E-03     143.933E-03
            1774            2122     141.103E-03     143.933E-03
            1775            2122     141.103E-03     143.933E-03
            1791            2122     141.103E-03     143.933E-03
            1776            2123     162.132E-03     164.796E-03
            1791            2123     162.132E-03     164.796E-03
            1775            2123     162.132E-03     164.796E-03
            1792            2123     162.132E-03     164.796E-03
            1793            2124     183.143E-03     185.913E-03
            1776            2124     183.143E-03     185.913E-03
            1777            2124     183.143E-03     185.913E-03
            1792            2124     183.143E-03     185.913E-03
            1777            2125     204.439E-03     206.933E-03
            1794            2125     204.439E-03     206.933E-03
            1778            2125     204.439E-03     206.933E-03
            1793            2125     204.439E-03     206.933E-03
            1794            2126     225.485E-03     228.280E-03
            1779            2126     225.485E-03     228.280E-03
            1778            2126     225.485E-03     228.280E-03
            1795            2126     225.485E-03     228.280E-03
            1780            2127     246.950E-03     249.306E-03
            1795            2127     246.950E-03     249.306E-03
            1779            2127     246.950E-03     249.306E-03
            1796            2127     246.950E-03     249.306E-03
            1796            2128     267.968E-03     270.736E-03
            1780            2128     267.968E-03     270.736E-03
            1781            2128     267.968E-03     270.736E-03
            1797            2128     267.968E-03     270.736E-03
            1798            2129     288.647E-03     290.791E-03
            1797            2129     288.647E-03     290.791E-03
            1782            2129     288.647E-03     290.791E-03
            1781            2129     288.647E-03     290.791E-03
            1799            2130     311.322E-03     313.416E-03
            1782            2130     311.322E-03     313.416E-03
            1783            2130     311.322E-03     313.416E-03
            1798            2130     311.322E-03     313.416E-03
            1800            2131     336.346E-03     341.041E-03
            1799            2131     336.346E-03     341.041E-03
            1783            2131     336.346E-03     341.041E-03
            1784            2131     336.346E-03     341.041E-03
            1802            2132     40.0124E-03     51.9900E-03
            1786            2132     40.0124E-03     51.9900E-03
            1801            2132     40.0124E-03     51.9900E-03
            1785            2132     40.0124E-03     51.9900E-03
            1786            2133     49.6245E-03     65.4985E-03
            1787            2133     49.6245E-03     65.4985E-03
            1803            2133     49.6245E-03     65.4985E-03
            1802            2133     49.6245E-03     65.4985E-03
            1787            2134     65.5838E-03     82.7425E-03
            1804            2134     65.5838E-03     82.7425E-03
            1788            2134     65.5838E-03     82.7425E-03
            1803            2134     65.5838E-03     82.7425E-03
            1805            2135     83.5759E-03     101.319E-03
            1788            2135     83.5759E-03     101.319E-03
            1789            2135     83.5759E-03     101.319E-03
            1804            2135     83.5759E-03     101.319E-03
            1789            2136     102.264E-03     120.169E-03
            1806            2136     102.264E-03     120.169E-03
            1790            2136     102.264E-03     120.169E-03
            1805            2136     102.264E-03     120.169E-03
            1806            2137     121.216E-03     139.286E-03
            1807            2137     121.216E-03     139.286E-03
            1791            2137     121.216E-03     139.286E-03
            1790            2137     121.216E-03     139.286E-03
            1808            2138     140.409E-03     158.493E-03
            1807            2138     140.409E-03     158.493E-03
            1792            2138     140.409E-03     158.493E-03
            1791            2138     140.409E-03     158.493E-03
            1809            2139     159.675E-03     177.875E-03
            1792            2139     159.675E-03     177.875E-03
            1808            2139     159.675E-03     177.875E-03
            1793            2139     159.675E-03     177.875E-03
            1809            2140     179.097E-03     197.228E-03
            1793            2140     179.097E-03     197.228E-03
            1794            2140     179.097E-03     197.228E-03
            1810            2140     179.097E-03     197.228E-03
            1811            2141     198.528E-03     216.772E-03
            1810            2141     198.528E-03     216.772E-03
            1794            2141     198.528E-03     216.772E-03
            1795            2141     198.528E-03     216.772E-03
            1796            2142     218.067E-03     236.171E-03
            1812            2142     218.067E-03     236.171E-03
            1811            2142     218.067E-03     236.171E-03
            1795            2142     218.067E-03     236.171E-03
            1812            2143     237.714E-03     255.878E-03
            1813            2143     237.714E-03     255.878E-03
            1797            2143     237.714E-03     255.878E-03
            1796            2143     237.714E-03     255.878E-03
            1798            2144     256.806E-03     275.149E-03
            1814            2144     256.806E-03     275.149E-03
            1813            2144     256.806E-03     275.149E-03
            1797            2144     256.806E-03     275.149E-03
            1814            2145     278.054E-03     296.193E-03
            1798            2145     278.054E-03     296.193E-03
            1799            2145     278.054E-03     296.193E-03
            1815            2145     278.054E-03     296.193E-03
            1816            2146     312.844E-03     328.626E-03
            1800            2146     312.844E-03     328.626E-03
            1799            2146     312.844E-03     328.626E-03
            1815            2146     312.844E-03     328.626E-03
            1817            2147     56.5756E-03     55.7686E-03
            1818            2147     56.5756E-03     55.7686E-03
            1801            2147     56.5756E-03     55.7686E-03
            1802            2147     56.5756E-03     55.7686E-03
            1818            2148     68.2320E-03     64.0290E-03
            1802            2148     68.2320E-03     64.0290E-03
            1819            2148     68.2320E-03     64.0290E-03
            1803            2148     68.2320E-03     64.0290E-03
            1804            2149     83.7266E-03     78.1225E-03
            1820            2149     83.7266E-03     78.1225E-03
            1803            2149     83.7266E-03     78.1225E-03
            1819            2149     83.7266E-03     78.1225E-03
            1821            2150     100.826E-03     94.9349E-03
            1820            2150     100.826E-03     94.9349E-03
            1804            2150     100.826E-03     94.9349E-03
            1805            2150     100.826E-03     94.9349E-03
            1805            2151     118.779E-03     112.591E-03
            1822            2151     118.779E-03     112.591E-03
            1821            2151     118.779E-03     112.591E-03
            1806            2151     118.779E-03     112.591E-03
            1806            2152     137.271E-03     130.833E-03
            1823            2152     137.271E-03     130.833E-03
            1822            2152     137.271E-03     130.833E-03
            1807            2152     137.271E-03     130.833E-03
            1824            2153     155.997E-03     149.476E-03
            1807            2153     155.997E-03     149.476E-03
            1823            2153     155.997E-03     149.476E-03
            1808            2153     155.997E-03     149.476E-03
            1825            2154     174.968E-03     168.307E-03
            1824            2154     174.968E-03     168.307E-03
            1808            2154     174.968E-03     168.307E-03
            1809            2154     174.968E-03     168.307E-03
            1826            2155     193.976E-03     187.339E-03
            1809            2155     193.976E-03     187.339E-03
            1810            2155     193.976E-03     187.339E-03
            1825            2155     193.976E-03     187.339E-03
            1810            2156     213.142E-03     206.364E-03
            1811            2156     213.142E-03     206.364E-03
            1826            2156     213.142E-03     206.364E-03
            1827            2156     213.142E-03     206.364E-03
            1811            2157     232.145E-03     225.445E-03
            1827            2157     232.145E-03     225.445E-03
            1828            2157     232.145E-03     225.445E-03
            1812            2157     232.145E-03     225.445E-03
            1828            2158     251.355E-03     244.469E-03
            1812            2158     251.355E-03     244.469E-03
            1813            2158     251.355E-03     244.469E-03
            1829            2158     251.355E-03     244.469E-03
            1814            2159     270.472E-03     263.860E-03
            1829            2159     270.472E-03     263.860E-03
            1813            2159     270.472E-03     263.860E-03
            1830            2159     270.472E-03     263.860E-03
            1814            2160     289.851E-03     283.211E-03
            1815            2160     289.851E-03     283.211E-03
            1830            2160     289.851E-03     283.211E-03
            1831            2160     289.851E-03     283.211E-03
            1816            2161     295.541E-03     286.311E-03
            1831            2161     295.541E-03     286.311E-03
            1815            2161     295.541E-03     286.311E-03
            1832            2161     295.541E-03     286.311E-03
            2273            2468     282.118E-06     302.902E-06
            2289            2468     282.118E-06     302.902E-06
            2274            2468     282.118E-06     302.902E-06
            2290            2468     282.118E-06     302.902E-06
            2275            2469     213.884E-06     238.427E-06
            2290            2469     213.884E-06     238.427E-06
            2291            2469     213.884E-06     238.427E-06
            2274            2469     213.884E-06     238.427E-06
            2291            2470     190.615E-06     215.088E-06
            2292            2470     190.615E-06     215.088E-06
            2276            2470     190.615E-06     215.088E-06
            2275            2470     190.615E-06     215.088E-06
            2292            2471     183.562E-06     207.212E-06
            2293            2471     183.562E-06     207.212E-06
            2277            2471     183.562E-06     207.212E-06
            2276            2471     183.562E-06     207.212E-06
            2293            2472     177.760E-06     200.412E-06
            2277            2472     177.760E-06     200.412E-06
            2278            2472     177.760E-06     200.412E-06
            2294            2472     177.760E-06     200.412E-06
            2294            2473     172.222E-06     194.264E-06
            2279            2473     172.222E-06     194.264E-06
            2295            2473     172.222E-06     194.264E-06
            2278            2473     172.222E-06     194.264E-06
            2279            2474     166.536E-06     187.867E-06
            2296            2474     166.536E-06     187.867E-06
            2280            2474     166.536E-06     187.867E-06
            2295            2474     166.536E-06     187.867E-06
            2296            2475     161.400E-06     181.816E-06
            2281            2475     161.400E-06     181.816E-06
            2297            2475     161.400E-06     181.816E-06
            2280            2475     161.400E-06     181.816E-06
            2297            2476     156.756E-06     176.029E-06
            2282            2476     156.756E-06     176.029E-06
            2298            2476     156.756E-06     176.029E-06
            2281            2476     156.756E-06     176.029E-06
            2282            2477     153.044E-06     170.710E-06
            2299            2477     153.044E-06     170.710E-06
            2298            2477     153.044E-06     170.710E-06
            2283            2477     153.044E-06     170.710E-06
            2284            2478     150.076E-06     165.925E-06
            2283            2478     150.076E-06     165.925E-06
            2300            2478     150.076E-06     165.925E-06
            2299            2478     150.076E-06     165.925E-06
            2301            2479     148.214E-06     161.525E-06
            2284            2479     148.214E-06     161.525E-06
            2285            2479     148.214E-06     161.525E-06
            2300            2479     148.214E-06     161.525E-06
            2302            2480     146.864E-06     157.378E-06
            2285            2480     146.864E-06     157.378E-06
            2301            2480     146.864E-06     157.378E-06
            2286            2480     146.864E-06     157.378E-06
            2303            2481     144.762E-06     156.179E-06
            2286            2481     144.762E-06     156.179E-06
            2287            2481     144.762E-06     156.179E-06
            2302            2481     144.762E-06     156.179E-06
            2287            2482     144.224E-06     155.891E-06
            2288            2482     144.224E-06     155.891E-06
            2303            2482     144.224E-06     155.891E-06
            2304            2482     144.224E-06     155.891E-06
            2289            2483     236.398E-06     240.371E-06
            2305            2483     236.398E-06     240.371E-06
            2290            2483     236.398E-06     240.371E-06
            2306            2483     236.398E-06     240.371E-06
            2307            2484     214.131E-06     225.941E-06
            2306            2484     214.131E-06     225.941E-06
            2290            2484     214.131E-06     225.941E-06
            2291            2484     214.131E-06     225.941E-06
            2307            2485     202.304E-06     217.402E-06
            2292            2485     202.304E-06     217.402E-06
            2308            2485     202.304E-06     217.402E-06
            2291            2485     202.304E-06     217.402E-06
            2309            2486     196.461E-06     211.155E-06
            2293            2486     196.461E-06     211.155E-06
            2292            2486     196.461E-06     211.155E-06
            2308            2486     196.461E-06     211.155E-06
            2309            2487     189.696E-06     203.315E-06
            2310            2487     189.696E-06     203.315E-06
            2293            2487     189.696E-06     203.315E-06
            2294            2487     189.696E-06     203.315E-06
            2294            2488     182.080E-06     195.681E-06
            2310            2488     182.080E-06     195.681E-06
            2311            2488     182.080E-06     195.681E-06
            2295            2488     182.080E-06     195.681E-06
            2295            2489     175.694E-06     188.726E-06
            2312            2489     175.694E-06     188.726E-06
            2296            2489     175.694E-06     188.726E-06
            2311            2489     175.694E-06     188.726E-06
            2296            2490     169.814E-06     182.449E-06
            2312            2490     169.814E-06     182.449E-06
            2313            2490     169.814E-06     182.449E-06
            2297            2490     169.814E-06     182.449E-06
            2314            2491     164.966E-06     176.968E-06
            2313            2491     164.966E-06     176.968E-06
            2298            2491     164.966E-06     176.968E-06
            2297            2491     164.966E-06     176.968E-06
            2298            2492     160.917E-06     172.057E-06
            2314            2492     160.917E-06     172.057E-06
            2315            2492     160.917E-06     172.057E-06
            2299            2492     160.917E-06     172.057E-06
            2300            2493     157.645E-06     167.980E-06
            2316            2493     157.645E-06     167.980E-06
            2315            2493     157.645E-06     167.980E-06
            2299            2493     157.645E-06     167.980E-06
            2317            2494     155.422E-06     164.438E-06
            2300            2494     155.422E-06     164.438E-06
            2301            2494     155.422E-06     164.438E-06
            2316            2494     155.422E-06     164.438E-06
            2318            2495     154.274E-06     161.471E-06
            2301            2495     154.274E-06     161.471E-06
            2302            2495     154.274E-06     161.471E-06
            2317            2495     154.274E-06     161.471E-06
            2302            2496     154.851E-06     158.085E-06
            2319            2496     154.851E-06     158.085E-06
            2318            2496     154.851E-06     158.085E-06
            2303            2496     154.851E-06     158.085E-06
            2303            2497     160.210E-06     152.122E-06
            2304            2497     160.210E-06     152.122E-06
            2320            2497     160.210E-06     152.122E-06
            2319            2497     160.210E-06     152.122E-06
            2306            2498     168.491E-06     175.314E-06
            2321            2498     168.491E-06     175.314E-06
            2305            2498     168.491E-06     175.314E-06
            2322            2498     168.491E-06     175.314E-06
            2307            2499     187.784E-06     198.252E-06
            2306            2499     187.784E-06     198.252E-06
            2323            2499     187.784E-06     198.252E-06
            2322            2499     187.784E-06     198.252E-06
            2323            2500     207.574E-06     213.759E-06
            2307            2500     207.574E-06     213.759E-06
            2308            2500     207.574E-06     213.759E-06
            2324            2500     207.574E-06     213.759E-06
            2309            2501     205.933E-06     210.176E-06
            2325            2501     205.933E-06     210.176E-06
            2324            2501     205.933E-06     210.176E-06
            2308            2501     205.933E-06     210.176E-06
            2325            2502     198.401E-06     203.149E-06
            2309            2502     198.401E-06     203.149E-06
            2326            2502     198.401E-06     203.149E-06
            2310            2502     198.401E-06     203.149E-06
            2310            2503     191.037E-06     195.308E-06
            2326            2503     191.037E-06     195.308E-06
            2327            2503     191.037E-06     195.308E-06
            2311            2503     191.037E-06     195.308E-06
            2327            2504     183.952E-06     188.434E-06
            2311            2504     183.952E-06     188.434E-06
            2312            2504     183.952E-06     188.434E-06
            2328            2504     183.952E-06     188.434E-06
            2329            2505     178.230E-06     182.584E-06
            2313            2505     178.230E-06     182.584E-06
            2312            2505     178.230E-06     182.584E-06
            2328            2505     178.230E-06     182.584E-06
            2313            2506     173.296E-06     177.564E-06
            2329            2506     173.296E-06     177.564E-06
            2314            2506     173.296E-06     177.564E-06
            2330            2506     173.296E-06     177.564E-06
            2315            2507     169.150E-06     173.494E-06
            2314            2507     169.150E-06     173.494E-06
            2331            2507     169.150E-06     173.494E-06
            2330            2507     169.150E-06     173.494E-06
            2316            2508     165.863E-06     169.974E-06
            2332            2508     165.863E-06     169.974E-06
            2315            2508     165.863E-06     169.974E-06
            2331            2508     165.863E-06     169.974E-06
            2332            2509     163.022E-06     167.533E-06
            2317            2509     163.022E-06     167.533E-06
            2333            2509     163.022E-06     167.533E-06
            2316            2509     163.022E-06     167.533E-06
            2318            2510     161.763E-06     165.836E-06
            2333            2510     161.763E-06     165.836E-06
            2317            2510     161.763E-06     165.836E-06
            2334            2510     161.763E-06     165.836E-06
            2335            2511     165.428E-06     160.297E-06
            2334            2511     165.428E-06     160.297E-06
            2319            2511     165.428E-06     160.297E-06
            2318            2511     165.428E-06     160.297E-06
            2319            2512     169.223E-06     151.764E-06
            2336            2512     169.223E-06     151.764E-06
            2335            2512     169.223E-06     151.764E-06
            2320            2512     169.223E-06     151.764E-06
            2338            2513     114.029E-06     114.576E-06
            2322            2513     114.029E-06     114.576E-06
            2321            2513     114.029E-06     114.576E-06
            2337            2513     114.029E-06     114.576E-06
            2322            2514     166.913E-06     167.892E-06
            2339            2514     166.913E-06     167.892E-06
            2338            2514     166.913E-06     167.892E-06
            2323            2514     166.913E-06     167.892E-06
            2324            2515     201.961E-06     196.598E-06
            2339            2515     201.961E-06     196.598E-06
            2340            2515     201.961E-06     196.598E-06
            2323            2515     201.961E-06     196.598E-06
            2341            2516     206.623E-06     200.622E-06
            2324            2516     206.623E-06     200.622E-06
            2340            2516     206.623E-06     200.622E-06
            2325            2516     206.623E-06     200.622E-06
            2341            2517     202.797E-06     197.046E-06
            2326            2517     202.797E-06     197.046E-06
            2342            2517     202.797E-06     197.046E-06
            2325            2517     202.797E-06     197.046E-06
            2343            2518     197.008E-06     191.799E-06
            2342            2518     197.008E-06     191.799E-06
            2327            2518     197.008E-06     191.799E-06
            2326            2518     197.008E-06     191.799E-06
            2327            2519     191.427E-06     186.629E-06
            2343            2519     191.427E-06     186.629E-06
            2328            2519     191.427E-06     186.629E-06
            2344            2519     191.427E-06     186.629E-06
            2328            2520     186.344E-06     182.044E-06
            2344            2520     186.344E-06     182.044E-06
            2345            2520     186.344E-06     182.044E-06
            2329            2520     186.344E-06     182.044E-06
            2345            2521     181.884E-06     178.200E-06
            2329            2521     181.884E-06     178.200E-06
            2330            2521     181.884E-06     178.200E-06
            2346            2521     181.884E-06     178.200E-06
            2347            2522     177.988E-06     174.872E-06
            2330            2522     177.988E-06     174.872E-06
            2346            2522     177.988E-06     174.872E-06
            2331            2522     177.988E-06     174.872E-06
            2347            2523     174.498E-06     172.363E-06
            2332            2523     174.498E-06     172.363E-06
            2348            2523     174.498E-06     172.363E-06
            2331            2523     174.498E-06     172.363E-06
            2348            2524     171.672E-06     170.399E-06
            2332            2524     171.672E-06     170.399E-06
            2333            2524     171.672E-06     170.399E-06
            2349            2524     171.672E-06     170.399E-06
            2333            2525     169.272E-06     169.302E-06
            2349            2525     169.272E-06     169.302E-06
            2334            2525     169.272E-06     169.302E-06
            2350            2525     169.272E-06     169.302E-06
            2334            2526     168.004E-06     169.141E-06
            2351            2526     168.004E-06     169.141E-06
            2350            2526     168.004E-06     169.141E-06
            2335            2526     168.004E-06     169.141E-06
            2336            2527     172.436E-06     165.493E-06
            2351            2527     172.436E-06     165.493E-06
            2352            2527     172.436E-06     165.493E-06
            2335            2527     172.436E-06     165.493E-06
            2353            2528     88.0132E-06     94.1880E-06
            2337            2528     88.0132E-06     94.1880E-06
            2338            2528     88.0132E-06     94.1880E-06
            2354            2528     88.0132E-06     94.1880E-06
            2339            2529     153.937E-06     134.089E-06
            2355            2529     153.937E-06     134.089E-06
            2338            2529     153.937E-06     134.089E-06
            2354            2529     153.937E-06     134.089E-06
            2340            2530     186.902E-06     168.470E-06
            2339            2530     186.902E-06     168.470E-06
            2356            2530     186.902E-06     168.470E-06
            2355            2530     186.902E-06     168.470E-06
            2340            2531     200.160E-06     183.163E-06
            2357            2531     200.160E-06     183.163E-06
            2341            2531     200.160E-06     183.163E-06
            2356            2531     200.160E-06     183.163E-06
            2358            2532     203.216E-06     186.778E-06
            2357            2532     203.216E-06     186.778E-06
            2342            2532     203.216E-06     186.778E-06
            2341            2532     203.216E-06     186.778E-06
            2342            2533     201.473E-06     186.332E-06
            2358            2533     201.473E-06     186.332E-06
            2343            2533     201.473E-06     186.332E-06
            2359            2533     201.473E-06     186.332E-06
            2343            2534     198.428E-06     184.120E-06
            2360            2534     198.428E-06     184.120E-06
            2344            2534     198.428E-06     184.120E-06
            2359            2534     198.428E-06     184.120E-06
            2360            2535     194.708E-06     181.559E-06
            2345            2535     194.708E-06     181.559E-06
            2361            2535     194.708E-06     181.559E-06
            2344            2535     194.708E-06     181.559E-06
            2346            2536     190.964E-06     179.029E-06
            2362            2536     190.964E-06     179.029E-06
            2345            2536     190.964E-06     179.029E-06
            2361            2536     190.964E-06     179.029E-06
            2346            2537     187.382E-06     176.766E-06
            2363            2537     187.382E-06     176.766E-06
            2362            2537     187.382E-06     176.766E-06
            2347            2537     187.382E-06     176.766E-06
            2363            2538     183.920E-06     174.998E-06
            2348            2538     183.920E-06     174.998E-06
            2347            2538     183.920E-06     174.998E-06
            2364            2538     183.920E-06     174.998E-06
            2364            2539     180.893E-06     173.619E-06
            2348            2539     180.893E-06     173.619E-06
            2365            2539     180.893E-06     173.619E-06
            2349            2539     180.893E-06     173.619E-06
            2366            2540     177.536E-06     172.870E-06
            2349            2540     177.536E-06     172.870E-06
            2365            2540     177.536E-06     172.870E-06
            2350            2540     177.536E-06     172.870E-06
            2367            2541     172.747E-06     175.591E-06
            2350            2541     172.747E-06     175.591E-06
            2366            2541     172.747E-06     175.591E-06
            2351            2541     172.747E-06     175.591E-06
            2367            2542     168.836E-06     180.770E-06
            2368            2542     168.836E-06     180.770E-06
            2352            2542     168.836E-06     180.770E-06
            2351            2542     168.836E-06     180.770E-06
            2545            2693     144.222E-06     155.929E-06
            2562            2693     144.222E-06     155.929E-06
            2546            2693     144.222E-06     155.929E-06
            2561            2693     144.222E-06     155.929E-06
            2546            2694     144.772E-06     156.160E-06
            2562            2694     144.772E-06     156.160E-06
            2547            2694     144.772E-06     156.160E-06
            2563            2694     144.772E-06     156.160E-06
            2548            2695     146.848E-06     157.333E-06
            2547            2695     146.848E-06     157.333E-06
            2564            2695     146.848E-06     157.333E-06
            2563            2695     146.848E-06     157.333E-06
            2565            2696     148.150E-06     161.453E-06
            2549            2696     148.150E-06     161.453E-06
            2564            2696     148.150E-06     161.453E-06
            2548            2696     148.150E-06     161.453E-06
            2566            2697     149.963E-06     165.800E-06
            2565            2697     149.963E-06     165.800E-06
            2550            2697     149.963E-06     165.800E-06
            2549            2697     149.963E-06     165.800E-06
            2566            2698     152.875E-06     170.529E-06
            2551            2698     152.875E-06     170.529E-06
            2550            2698     152.875E-06     170.529E-06
            2567            2698     152.875E-06     170.529E-06
            2567            2699     156.525E-06     175.789E-06
            2568            2699     156.525E-06     175.789E-06
            2551            2699     156.525E-06     175.789E-06
            2552            2699     156.525E-06     175.789E-06
            2568            2700     161.104E-06     181.516E-06
            2569            2700     161.104E-06     181.516E-06
            2552            2700     161.104E-06     181.516E-06
            2553            2700     161.104E-06     181.516E-06
            2569            2701     166.177E-06     187.508E-06
            2570            2701     166.177E-06     187.508E-06
            2553            2701     166.177E-06     187.508E-06
            2554            2701     166.177E-06     187.508E-06
            2571            2702     171.804E-06     193.846E-06
            2554            2702     171.804E-06     193.846E-06
            2555            2702     171.804E-06     193.846E-06
            2570            2702     171.804E-06     193.846E-06
            2571            2703     177.282E-06     199.929E-06
            2572            2703     177.282E-06     199.929E-06
            2556            2703     177.282E-06     199.929E-06
            2555            2703     177.282E-06     199.929E-06
            2557            2704     182.990E-06     206.636E-06
            2573            2704     182.990E-06     206.636E-06
            2572            2704     182.990E-06     206.636E-06
            2556            2704     182.990E-06     206.636E-06
            2573            2705     189.810E-06     214.300E-06
            2574            2705     189.810E-06     214.300E-06
            2558            2705     189.810E-06     214.300E-06
            2557            2705     189.810E-06     214.300E-06
            2575            2706     212.671E-06     237.260E-06
            2574            2706     212.671E-06     237.260E-06
            2558            2706     212.671E-06     237.260E-06
            2559            2706     212.671E-06     237.260E-06
            2559            2707     280.423E-06     301.297E-06
            2560            2707     280.423E-06     301.297E-06
            2575            2707     280.423E-06     301.297E-06
            2576            2707     280.423E-06     301.297E-06
            2577            2708     160.133E-06     152.069E-06
            2562            2708     160.133E-06     152.069E-06
            2578            2708     160.133E-06     152.069E-06
            2561            2708     160.133E-06     152.069E-06
            2563            2709     154.745E-06     158.027E-06
            2579            2709     154.745E-06     158.027E-06
            2562            2709     154.745E-06     158.027E-06
            2578            2709     154.745E-06     158.027E-06
            2563            2710     154.149E-06     161.366E-06
            2580            2710     154.149E-06     161.366E-06
            2579            2710     154.149E-06     161.366E-06
            2564            2710     154.149E-06     161.366E-06
            2581            2711     155.269E-06     164.282E-06
            2565            2711     155.269E-06     164.282E-06
            2564            2711     155.269E-06     164.282E-06
            2580            2711     155.269E-06     164.282E-06
            2581            2712     157.452E-06     167.777E-06
            2565            2712     157.452E-06     167.777E-06
            2582            2712     157.452E-06     167.777E-06
            2566            2712     157.452E-06     167.777E-06
            2566            2713     160.672E-06     171.802E-06
            2567            2713     160.672E-06     171.802E-06
            2583            2713     160.672E-06     171.802E-06
            2582            2713     160.672E-06     171.802E-06
            2583            2714     164.659E-06     176.654E-06
            2568            2714     164.659E-06     176.654E-06
            2567            2714     164.659E-06     176.654E-06
            2584            2714     164.659E-06     176.654E-06
            2569            2715     169.437E-06     182.067E-06
            2568            2715     169.437E-06     182.067E-06
            2585            2715     169.437E-06     182.067E-06
            2584            2715     169.437E-06     182.067E-06
            2569            2716     175.244E-06     188.270E-06
            2570            2716     175.244E-06     188.270E-06
            2586            2716     175.244E-06     188.270E-06
            2585            2716     175.244E-06     188.270E-06
            2587            2717     181.555E-06     195.153E-06
            2570            2717     181.555E-06     195.153E-06
            2571            2717     181.555E-06     195.153E-06
            2586            2717     181.555E-06     195.153E-06
            2571            2718     189.112E-06     202.717E-06
            2572            2718     189.112E-06     202.717E-06
            2587            2718     189.112E-06     202.717E-06
            2588            2718     189.112E-06     202.717E-06
            2573            2719     195.841E-06     210.514E-06
            2589            2719     195.841E-06     210.514E-06
            2588            2719     195.841E-06     210.514E-06
            2572            2719     195.841E-06     210.514E-06
            2589            2720     201.605E-06     216.703E-06
            2573            2720     201.605E-06     216.703E-06
            2574            2720     201.605E-06     216.703E-06
            2590            2720     201.605E-06     216.703E-06
            2575            2721     213.201E-06     225.068E-06
            2590            2721     213.201E-06     225.068E-06
            2574            2721     213.201E-06     225.068E-06
            2591            2721     213.201E-06     225.068E-06
            2575            2722     235.075E-06     239.089E-06
            2591            2722     235.075E-06     239.089E-06
            2592            2722     235.075E-06     239.089E-06
            2576            2722     235.075E-06     239.089E-06
            2577            2723     169.107E-06     151.604E-06
            2594            2723     169.107E-06     151.604E-06
            2593            2723     169.107E-06     151.604E-06
            2578            2723     169.107E-06     151.604E-06
            2579            2724     165.238E-06     160.188E-06
            2595            2724     165.238E-06     160.188E-06
            2594            2724     165.238E-06     160.188E-06
            2578            2724     165.238E-06     160.188E-06
            2595            2725     161.548E-06     165.673E-06
            2579            2725     161.548E-06     165.673E-06
            2580            2725     161.548E-06     165.673E-06
            2596            2725     161.548E-06     165.673E-06
            2597            2726     162.804E-06     167.304E-06
            2596            2726     162.804E-06     167.304E-06
            2581            2726     162.804E-06     167.304E-06
            2580            2726     162.804E-06     167.304E-06
            2582            2727     165.610E-06     169.709E-06
            2581            2727     165.610E-06     169.709E-06
            2597            2727     165.610E-06     169.709E-06
            2598            2727     165.610E-06     169.709E-06
            2583            2728     168.850E-06     173.183E-06
            2598            2728     168.850E-06     173.183E-06
            2582            2728     168.850E-06     173.183E-06
            2599            2728     168.850E-06     173.183E-06
            2600            2729     172.939E-06     177.196E-06
            2584            2729     172.939E-06     177.196E-06
            2599            2729     172.939E-06     177.196E-06
            2583            2729     172.939E-06     177.196E-06
            2585            2730     177.805E-06     182.147E-06
            2601            2730     177.805E-06     182.147E-06
            2600            2730     177.805E-06     182.147E-06
            2584            2730     177.805E-06     182.147E-06
            2585            2731     183.449E-06     187.921E-06
            2586            2731     183.449E-06     187.921E-06
            2601            2731     183.449E-06     187.921E-06
            2602            2731     183.449E-06     187.921E-06
            2587            2732     190.460E-06     194.715E-06
            2586            2732     190.460E-06     194.715E-06
            2602            2732     190.460E-06     194.715E-06
            2603            2732     190.460E-06     194.715E-06
            2603            2733     197.773E-06     202.505E-06
            2587            2733     197.773E-06     202.505E-06
            2604            2733     197.773E-06     202.505E-06
            2588            2733     197.773E-06     202.505E-06
            2605            2734     205.318E-06     209.528E-06
            2588            2734     205.318E-06     209.528E-06
            2604            2734     205.318E-06     209.528E-06
            2589            2734     205.318E-06     209.528E-06
            2590            2735     207.126E-06     213.238E-06
            2606            2735     207.126E-06     213.238E-06
            2589            2735     207.126E-06     213.238E-06
            2605            2735     207.126E-06     213.238E-06
            2607            2736     187.361E-06     197.818E-06
            2591            2736     187.361E-06     197.818E-06
            2590            2736     187.361E-06     197.818E-06
            2606            2736     187.361E-06     197.818E-06
            2591            2737     167.589E-06     174.439E-06
            2592            2737     167.589E-06     174.439E-06
            2607            2737     167.589E-06     174.439E-06
            2608            2737     167.589E-06     174.439E-06
            2594            2738     172.218E-06     165.277E-06
            2593            2738     172.218E-06     165.277E-06
            2609            2738     172.218E-06     165.277E-06
            2610            2738     172.218E-06     165.277E-06
            2611            2739     167.775E-06     168.909E-06
            2594            2739     167.775E-06     168.909E-06
            2610            2739     167.775E-06     168.909E-06
            2595            2739     167.775E-06     168.909E-06
            2611            2740     169.030E-06     169.044E-06
            2596            2740     169.030E-06     169.044E-06
            2595            2740     169.030E-06     169.044E-06
            2612            2740     169.030E-06     169.044E-06
            2613            2741     171.403E-06     170.118E-06
            2596            2741     171.403E-06     170.118E-06
            2612            2741     171.403E-06     170.118E-06
            2597            2741     171.403E-06     170.118E-06
            2598            2742     174.199E-06     172.050E-06
            2614            2742     174.199E-06     172.050E-06
            2613            2742     174.199E-06     172.050E-06
            2597            2742     174.199E-06     172.050E-06
            2599            2743     177.652E-06     174.522E-06
            2614            2743     177.652E-06     174.522E-06
            2598            2743     177.652E-06     174.522E-06
            2615            2743     177.652E-06     174.522E-06
            2615            2744     181.504E-06     177.805E-06
            2600            2744     181.504E-06     177.805E-06
            2616            2744     181.504E-06     177.805E-06
            2599            2744     181.504E-06     177.805E-06
            2617            2745     185.912E-06     181.595E-06
            2600            2745     185.912E-06     181.595E-06
            2616            2745     185.912E-06     181.595E-06
            2601            2745     185.912E-06     181.595E-06
            2602            2746     190.938E-06     186.120E-06
            2618            2746     190.938E-06     186.120E-06
            2601            2746     190.938E-06     186.120E-06
            2617            2746     190.938E-06     186.120E-06
            2602            2747     196.467E-06     191.239E-06
            2618            2747     196.467E-06     191.239E-06
            2603            2747     196.467E-06     191.239E-06
            2619            2747     196.467E-06     191.239E-06
            2620            2748     202.238E-06     196.465E-06
            2603            2748     202.238E-06     196.465E-06
            2619            2748     202.238E-06     196.465E-06
            2604            2748     202.238E-06     196.465E-06
            2621            2749     206.126E-06     200.093E-06
            2605            2749     206.126E-06     200.093E-06
            2620            2749     206.126E-06     200.093E-06
            2604            2749     206.126E-06     200.093E-06
            2622            2750     201.703E-06     196.261E-06
            2621            2750     201.703E-06     196.261E-06
            2606            2750     201.703E-06     196.261E-06
            2605            2750     201.703E-06     196.261E-06
            2623            2751     166.935E-06     167.823E-06
            2607            2751     166.935E-06     167.823E-06
            2622            2751     166.935E-06     167.823E-06
            2606            2751     166.935E-06     167.823E-06
            2607            2752     113.563E-06     114.121E-06
            2608            2752     113.563E-06     114.121E-06
            2624            2752     113.563E-06     114.121E-06
            2623            2752     113.563E-06     114.121E-06
            2625            2753     168.557E-06     180.470E-06
            2626            2753     168.557E-06     180.470E-06
            2610            2753     168.557E-06     180.470E-06
            2609            2753     168.557E-06     180.470E-06
            2610            2754     172.485E-06     175.259E-06
            2626            2754     172.485E-06     175.259E-06
            2627            2754     172.485E-06     175.259E-06
            2611            2754     172.485E-06     175.259E-06
            2628            2755     177.257E-06     172.538E-06
            2611            2755     177.257E-06     172.538E-06
            2612            2755     177.257E-06     172.538E-06
            2627            2755     177.257E-06     172.538E-06
            2613            2756     180.581E-06     173.287E-06
            2628            2756     180.581E-06     173.287E-06
            2629            2756     180.581E-06     173.287E-06
            2612            2756     180.581E-06     173.287E-06
            2613            2757     183.582E-06     174.641E-06
            2614            2757     183.582E-06     174.641E-06
            2629            2757     183.582E-06     174.641E-06
            2630            2757     183.582E-06     174.641E-06
            2615            2758     187.019E-06     176.382E-06
            2630            2758     187.019E-06     176.382E-06
            2614            2758     187.019E-06     176.382E-06
            2631            2758     187.019E-06     176.382E-06
            2616            2759     190.575E-06     178.616E-06
            2615            2759     190.575E-06     178.616E-06
            2631            2759     190.575E-06     178.616E-06
            2632            2759     190.575E-06     178.616E-06
            2633            2760     194.294E-06     181.119E-06
            2632            2760     194.294E-06     181.119E-06
            2616            2760     194.294E-06     181.119E-06
            2617            2760     194.294E-06     181.119E-06
            2618            2761     197.997E-06     183.661E-06
            2634            2761     197.997E-06     183.661E-06
            2617            2761     197.997E-06     183.661E-06
            2633            2761     197.997E-06     183.661E-06
            2619            2762     201.045E-06     185.877E-06
            2634            2762     201.045E-06     185.877E-06
            2618            2762     201.045E-06     185.877E-06
            2635            2762     201.045E-06     185.877E-06
            2635            2763     202.831E-06     186.367E-06
            2619            2763     202.831E-06     186.367E-06
            2620            2763     202.831E-06     186.367E-06
            2636            2763     202.831E-06     186.367E-06
            2637            2764     199.895E-06     182.870E-06
            2620            2764     199.895E-06     182.870E-06
            2636            2764     199.895E-06     182.870E-06
            2621            2764     199.895E-06     182.870E-06
            2638            2765     186.810E-06     168.364E-06
            2621            2765     186.810E-06     168.364E-06
            2637            2765     186.810E-06     168.364E-06
            2622            2765     186.810E-06     168.364E-06
            2623            2766     154.161E-06     134.267E-06
            2639            2766     154.161E-06     134.267E-06
            2638            2766     154.161E-06     134.267E-06
            2622            2766     154.161E-06     134.267E-06
            2640            2767     87.9607E-06     94.1629E-06
            2639            2767     87.9607E-06     94.1629E-06
            2623            2767     87.9607E-06     94.1629E-06
            2624            2767     87.9607E-06     94.1629E-06
            3028            3027     37.7675E-03     47.0778E-03
            3027            3027     37.7675E-03     47.0778E-03
            3012            3027     37.7675E-03     47.0778E-03
            3011            3027     37.7675E-03     47.0778E-03
            3029            3028     42.2257E-03     55.8126E-03
            3028            3028     42.2257E-03     55.8126E-03
            3012            3028     42.2257E-03     55.8126E-03
            3013            3028     42.2257E-03     55.8126E-03
            3014            3029     52.2242E-03     67.7676E-03
            3029            3029     52.2242E-03     67.7676E-03
            3013            3029     52.2242E-03     67.7676E-03
            3030            3029     52.2242E-03     67.7676E-03
            3031            3030     64.5186E-03     81.0512E-03
            3014            3030     64.5186E-03     81.0512E-03
            3030            3030     64.5186E-03     81.0512E-03
            3015            3030     64.5186E-03     81.0512E-03
            3016            3031     77.7001E-03     94.6641E-03
            3031            3031     77.7001E-03     94.6641E-03
            3032            3031     77.7001E-03     94.6641E-03
            3015            3031     77.7001E-03     94.6641E-03
            3032            3032     91.3004E-03     108.618E-03
            3033            3032     91.3004E-03     108.618E-03
            3017            3032     91.3004E-03     108.618E-03
            3016            3032     91.3004E-03     108.618E-03
            3034            3033     105.254E-03     122.706E-03
            3018            3033     105.254E-03     122.706E-03
            3017            3033     105.254E-03     122.706E-03
            3033            3033     105.254E-03     122.706E-03
            3018            3034     119.350E-03     137.005E-03
            3035            3034     119.350E-03     137.005E-03
            3019            3034     119.350E-03     137.005E-03
            3034            3034     119.350E-03     137.005E-03
            3036            3035     133.646E-03     151.298E-03
            3019            3035     133.646E-03     151.298E-03
            3020            3035     133.646E-03     151.298E-03
            3035            3035     133.646E-03     151.298E-03
            3020            3036     147.989E-03     165.807E-03
            3036            3036     147.989E-03     165.807E-03
            3021            3036     147.989E-03     165.807E-03
            3037            3036     147.989E-03     165.807E-03
            3038            3037     162.459E-03     180.194E-03
            3037            3037     162.459E-03     180.194E-03
            3022            3037     162.459E-03     180.194E-03
            3021            3037     162.459E-03     180.194E-03
            3039            3038     177.119E-03     194.908E-03
            3023            3038     177.119E-03     194.908E-03
            3022            3038     177.119E-03     194.908E-03
            3038            3038     177.119E-03     194.908E-03
            3023            3039     191.234E-03     209.232E-03
            3040            3039     191.234E-03     209.232E-03
            3039            3039     191.234E-03     209.232E-03
            3024            3039     191.234E-03     209.232E-03
            3025            3040     206.656E-03     224.486E-03
            3040            3040     206.656E-03     224.486E-03
            3024            3040     206.656E-03     224.486E-03
            3041            3040     206.656E-03     224.486E-03
            3041            3041     234.836E-03     250.643E-03
            3026            3041     234.836E-03     250.643E-03
            3025            3041     234.836E-03     250.643E-03
            3042            3041     234.836E-03     250.643E-03
            3027            3042     50.9494E-03     48.8058E-03
            3043            3042     50.9494E-03     48.8058E-03
            3044            3042     50.9494E-03     48.8058E-03
            3028            3042     50.9494E-03     48.8058E-03
            3045            3043     58.3169E-03     52.9726E-03
            3044            3043     58.3169E-03     52.9726E-03
            3029            3043     58.3169E-03     52.9726E-03
            3028            3043     58.3169E-03     52.9726E-03
            3029            3044     69.0228E-03     62.0263E-03
            3030            3044     69.0228E-03     62.0263E-03
            3045            3044     69.0228E-03     62.0263E-03
            3046            3044     69.0228E-03     62.0263E-03
            3030            3045     81.1665E-03     73.5488E-03
            3031            3045     81.1665E-03     73.5488E-03
            3046            3045     81.1665E-03     73.5488E-03
            3047            3045     81.1665E-03     73.5488E-03
            3048            3046     94.1040E-03     85.9403E-03
            3047            3046     94.1040E-03     85.9403E-03
            3031            3046     94.1040E-03     85.9403E-03
            3032            3046     94.1040E-03     85.9403E-03
            3049            3047     107.550E-03     98.9982E-03
            3048            3047     107.550E-03     98.9982E-03
            3032            3047     107.550E-03     98.9982E-03
            3033            3047     107.550E-03     98.9982E-03
            3033            3048     121.249E-03     112.504E-03
            3034            3048     121.249E-03     112.504E-03
            3049            3048     121.249E-03     112.504E-03
            3050            3048     121.249E-03     112.504E-03
            3034            3049     135.212E-03     126.244E-03
            3051            3049     135.212E-03     126.244E-03
            3050            3049     135.212E-03     126.244E-03
            3035            3049     135.212E-03     126.244E-03
            3035            3050     149.238E-03     140.224E-03
            3036            3050     149.238E-03     140.224E-03
            3052            3050     149.238E-03     140.224E-03
            3051            3050     149.238E-03     140.224E-03
            3037            3051     163.449E-03     154.244E-03
            3036            3051     163.449E-03     154.244E-03
            3052            3051     163.449E-03     154.244E-03
            3053            3051     163.449E-03     154.244E-03
            3054            3052     177.533E-03     168.368E-03
            3053            3052     177.533E-03     168.368E-03
            3037            3052     177.533E-03     168.368E-03
            3038            3052     177.533E-03     168.368E-03
            3038            3053     191.765E-03     182.343E-03
            3054            3053     191.765E-03     182.343E-03
            3039            3053     191.765E-03     182.343E-03
            3055            3053     191.765E-03     182.343E-03
            3040            3054     206.019E-03     196.818E-03
            3056            3054     206.019E-03     196.818E-03
            3039            3054     206.019E-03     196.818E-03
            3055            3054     206.019E-03     196.818E-03
            3040            3055     221.248E-03     211.972E-03
            3056            3055     221.248E-03     211.972E-03
            3041            3055     221.248E-03     211.972E-03
            3057            3055     221.248E-03     211.972E-03
            3058            3056     221.960E-03     210.375E-03
            3042            3056     221.960E-03     210.375E-03
            3041            3056     221.960E-03     210.375E-03
            3057            3056     221.960E-03     210.375E-03
            3044            3057     41.8846E-03     44.6675E-03
            3060            3057     41.8846E-03     44.6675E-03
            3059            3057     41.8846E-03     44.6675E-03
            3043            3057     41.8846E-03     44.6675E-03
            3045            3058     49.1241E-03     47.2698E-03
            3061            3058     49.1241E-03     47.2698E-03
            3044            3058     49.1241E-03     47.2698E-03
            3060            3058     49.1241E-03     47.2698E-03
            3045            3059     56.0408E-03     52.8602E-03
            3061            3059     56.0408E-03     52.8602E-03
            3046            3059     56.0408E-03     52.8602E-03
            3062            3059     56.0408E-03     52.8602E-03
            3046            3060     63.9008E-03     60.6596E-03
            3063            3060     63.9008E-03     60.6596E-03
            3047            3060     63.9008E-03     60.6596E-03
            3062            3060     63.9008E-03     60.6596E-03
            3063            3061     72.5841E-03     69.3613E-03
            3047            3061     72.5841E-03     69.3613E-03
            3064            3061     72.5841E-03     69.3613E-03
            3048            3061     72.5841E-03     69.3613E-03
            3049            3062     81.8807E-03     78.6862E-03
            3064            3062     81.8807E-03     78.6862E-03
            3065            3062     81.8807E-03     78.6862E-03
            3048            3062     81.8807E-03     78.6862E-03
            3049            3063     91.5032E-03     88.3631E-03
            3065            3063     91.5032E-03     88.3631E-03
            3066            3063     91.5032E-03     88.3631E-03
            3050            3063     91.5032E-03     88.3631E-03
            3050            3064     101.403E-03     98.2180E-03
            3066            3064     101.403E-03     98.2180E-03
            3051            3064     101.403E-03     98.2180E-03
            3067            3064     101.403E-03     98.2180E-03
            3068            3065     111.403E-03     108.264E-03
            3052            3065     111.403E-03     108.264E-03
            3051            3065     111.403E-03     108.264E-03
            3067            3065     111.403E-03     108.264E-03
            3069            3066     121.517E-03     118.302E-03
            3068            3066     121.517E-03     118.302E-03
            3053            3066     121.517E-03     118.302E-03
            3052            3066     121.517E-03     118.302E-03
            3070            3067     131.905E-03     128.708E-03
            3053            3067     131.905E-03     128.708E-03
            3054            3067     131.905E-03     128.708E-03
            3069            3067     131.905E-03     128.708E-03
            3054            3068     142.756E-03     139.525E-03
            3055            3068     142.756E-03     139.525E-03
            3071            3068     142.756E-03     139.525E-03
            3070            3068     142.756E-03     139.525E-03
            3072            3069     156.666E-03     153.134E-03
            3071            3069     156.666E-03     153.134E-03
            3055            3069     156.666E-03     153.134E-03
            3056            3069     156.666E-03     153.134E-03
            3057            3070     172.914E-03     170.745E-03
            3072            3070     172.914E-03     170.745E-03
            3056            3070     172.914E-03     170.745E-03
            3073            3070     172.914E-03     170.745E-03
            3058            3071     191.976E-03     196.071E-03
            3074            3071     191.976E-03     196.071E-03
            3073            3071     191.976E-03     196.071E-03
            3057            3071     191.976E-03     196.071E-03
            3075            3072     33.9224E-03     40.6534E-03
            3076            3072     33.9224E-03     40.6534E-03
            3060            3072     33.9224E-03     40.6534E-03
            3059            3072     33.9224E-03     40.6534E-03
            3077            3073     34.4631E-03     42.2165E-03
            3061            3073     34.4631E-03     42.2165E-03
            3076            3073     34.4631E-03     42.2165E-03
            3060            3073     34.4631E-03     42.2165E-03
            3061            3074     37.2338E-03     46.1090E-03
            3077            3074     37.2338E-03     46.1090E-03
            3078            3074     37.2338E-03     46.1090E-03
            3062            3074     37.2338E-03     46.1090E-03
            3062            3075     40.8493E-03     51.1832E-03
            3079            3075     40.8493E-03     51.1832E-03
            3078            3075     40.8493E-03     51.1832E-03
            3063            3075     40.8493E-03     51.1832E-03
            3064            3076     45.3612E-03     56.8715E-03
            3079            3076     45.3612E-03     56.8715E-03
            3080            3076     45.3612E-03     56.8715E-03
            3063            3076     45.3612E-03     56.8715E-03
            3080            3077     50.5764E-03     62.8840E-03
            3081            3077     50.5764E-03     62.8840E-03
            3065            3077     50.5764E-03     62.8840E-03
            3064            3077     50.5764E-03     62.8840E-03
            3065            3078     56.2528E-03     69.0690E-03
            3081            3078     56.2528E-03     69.0690E-03
            3082            3078     56.2528E-03     69.0690E-03
            3066            3078     56.2528E-03     69.0690E-03
            3082            3079     62.2076E-03     75.4041E-03
            3067            3079     62.2076E-03     75.4041E-03
            3066            3079     62.2076E-03     75.4041E-03
            3083            3079     62.2076E-03     75.4041E-03
            3067            3080     68.2981E-03     81.7395E-03
            3068            3080     68.2981E-03     81.7395E-03
            3083            3080     68.2981E-03     81.7395E-03
            3084            3080     68.2981E-03     81.7395E-03
            3068            3081     74.6384E-03     88.2844E-03
            3084            3081     74.6384E-03     88.2844E-03
            3085            3081     74.6384E-03     88.2844E-03
            3069            3081     74.6384E-03     88.2844E-03
            3085            3082     81.2405E-03     95.0836E-03
            3086            3082     81.2405E-03     95.0836E-03
            3069            3082     81.2405E-03     95.0836E-03
            3070            3082     81.2405E-03     95.0836E-03
            3071            3083     89.6500E-03     103.558E-03
            3086            3083     89.6500E-03     103.558E-03
            3070            3083     89.6500E-03     103.558E-03
            3087            3083     89.6500E-03     103.558E-03
            3088            3084     101.355E-03     115.497E-03
            3071            3084     101.355E-03     115.497E-03
            3072            3084     101.355E-03     115.497E-03
            3087            3084     101.355E-03     115.497E-03
            3073            3085     124.354E-03     138.750E-03
            3072            3085     124.354E-03     138.750E-03
            3088            3085     124.354E-03     138.750E-03
            3089            3085     124.354E-03     138.750E-03
            3073            3086     176.002E-03     188.178E-03
            3090            3086     176.002E-03     188.178E-03
            3089            3086     176.002E-03     188.178E-03
            3074            3086     176.002E-03     188.178E-03
            3075            3087     42.5888E-03     40.7697E-03
            3076            3087     42.5888E-03     40.7697E-03
            3092            3087     42.5888E-03     40.7697E-03
            3091            3087     42.5888E-03     40.7697E-03
            3077            3088     40.7193E-03     43.7394E-03
            3093            3088     40.7193E-03     43.7394E-03
            3092            3088     40.7193E-03     43.7394E-03
            3076            3088     40.7193E-03     43.7394E-03
            3077            3089     42.3061E-03     47.3979E-03
            3094            3089     42.3061E-03     47.3979E-03
            3078            3089     42.3061E-03     47.3979E-03
            3093            3089     42.3061E-03     47.3979E-03
            3094            3090     45.8281E-03     52.1150E-03
            3095            3090     45.8281E-03     52.1150E-03
            3078            3090     45.8281E-03     52.1150E-03
            3079            3090     45.8281E-03     52.1150E-03
            3095            3091     50.2507E-03     57.4682E-03
            3079            3091     50.2507E-03     57.4682E-03
            3096            3091     50.2507E-03     57.4682E-03
            3080            3091     50.2507E-03     57.4682E-03
            3081            3092     55.4724E-03     63.2105E-03
            3096            3092     55.4724E-03     63.2105E-03
            3080            3092     55.4724E-03     63.2105E-03
            3097            3092     55.4724E-03     63.2105E-03
            3097            3093     61.1723E-03     69.3101E-03
            3098            3093     61.1723E-03     69.3101E-03
            3082            3093     61.1723E-03     69.3101E-03
            3081            3093     61.1723E-03     69.3101E-03
            3099            3094     67.1882E-03     75.6095E-03
            3098            3094     67.1882E-03     75.6095E-03
            3083            3094     67.1882E-03     75.6095E-03
            3082            3094     67.1882E-03     75.6095E-03
            3099            3095     73.4806E-03     82.1329E-03
            3100            3095     73.4806E-03     82.1329E-03
            3083            3095     73.4806E-03     82.1329E-03
            3084            3095     73.4806E-03     82.1329E-03
            3100            3096     79.9222E-03     88.8222E-03
            3084            3096     79.9222E-03     88.8222E-03
            3101            3096     79.9222E-03     88.8222E-03
            3085            3096     79.9222E-03     88.8222E-03
            3085            3097     86.7989E-03     95.9299E-03
            3086            3097     86.7989E-03     95.9299E-03
            3102            3097     86.7989E-03     95.9299E-03
            3101            3097     86.7989E-03     95.9299E-03
            3103            3098     94.2647E-03     103.802E-03
            3086            3098     94.2647E-03     103.802E-03
            3102            3098     94.2647E-03     103.802E-03
            3087            3098     94.2647E-03     103.802E-03
            3087            3099     104.753E-03     113.956E-03
            3103            3099     104.753E-03     113.956E-03
            3104            3099     104.753E-03     113.956E-03
            3088            3099     104.753E-03     113.956E-03
            3105            3100     126.379E-03     132.707E-03
            3088            3100     126.379E-03     132.707E-03
            3089            3100     126.379E-03     132.707E-03
            3104            3100     126.379E-03     132.707E-03
            3106            3101     161.533E-03     162.445E-03
            3105            3101     161.533E-03     162.445E-03
            3090            3101     161.533E-03     162.445E-03
            3089            3101     161.533E-03     162.445E-03
            3107            3102     47.5347E-03     43.3192E-03
            3091            3102     47.5347E-03     43.3192E-03
            3092            3102     47.5347E-03     43.3192E-03
            3108            3102     47.5347E-03     43.3192E-03
            3108            3103     46.6676E-03     45.3540E-03
            3109            3103     46.6676E-03     45.3540E-03
            3092            3103     46.6676E-03     45.3540E-03
            3093            3103     46.6676E-03     45.3540E-03
            3110            3104     47.4854E-03     49.2304E-03
            3109            3104     47.4854E-03     49.2304E-03
            3093            3104     47.4854E-03     49.2304E-03
            3094            3104     47.4854E-03     49.2304E-03
            3111            3105     50.5001E-03     53.4504E-03
            3110            3105     50.5001E-03     53.4504E-03
            3094            3105     50.5001E-03     53.4504E-03
            3095            3105     50.5001E-03     53.4504E-03
            3112            3106     54.9783E-03     58.2268E-03
            3111            3106     54.9783E-03     58.2268E-03
            3095            3106     54.9783E-03     58.2268E-03
            3096            3106     54.9783E-03     58.2268E-03
            3112            3107     60.1198E-03     63.6443E-03
            3096            3107     60.1198E-03     63.6443E-03
            3113            3107     60.1198E-03     63.6443E-03
            3097            3107     60.1198E-03     63.6443E-03
            3097            3108     65.7713E-03     69.4894E-03
            3113            3108     65.7713E-03     69.4894E-03
            3098            3108     65.7713E-03     69.4894E-03
            3114            3108     65.7713E-03     69.4894E-03
            3114            3109     71.8474E-03     75.7261E-03
            3099            3109     71.8474E-03     75.7261E-03
            3115            3109     71.8474E-03     75.7261E-03
            3098            3109     71.8474E-03     75.7261E-03
            3099            3110     78.2711E-03     82.3223E-03
            3115            3110     78.2711E-03     82.3223E-03
            3116            3110     78.2711E-03     82.3223E-03
            3100            3110     78.2711E-03     82.3223E-03
            3101            3111     84.9855E-03     89.2054E-03
            3116            3111     84.9855E-03     89.2054E-03
            3100            3111     84.9855E-03     89.2054E-03
            3117            3111     84.9855E-03     89.2054E-03
            3117            3112     91.9518E-03     96.4480E-03
            3102            3112     91.9518E-03     96.4480E-03
            3118            3112     91.9518E-03     96.4480E-03
            3101            3112     91.9518E-03     96.4480E-03
            3102            3113     98.5872E-03     103.522E-03
            3118            3113     98.5872E-03     103.522E-03
            3119            3113     98.5872E-03     103.522E-03
            3103            3113     98.5872E-03     103.522E-03
            3103            3114     105.936E-03     110.830E-03
            3104            3114     105.936E-03     110.830E-03
            3120            3114     105.936E-03     110.830E-03
            3119            3114     105.936E-03     110.830E-03
            3121            3115     115.621E-03     119.182E-03
            3104            3115     115.621E-03     119.182E-03
            3105            3115     115.621E-03     119.182E-03
            3120            3115     115.621E-03     119.182E-03
            3106            3116     133.685E-03     136.907E-03
            3122            3116     133.685E-03     136.907E-03
            3121            3116     133.685E-03     136.907E-03
            3105            3116     133.685E-03     136.907E-03
            3124            3117     51.5235E-03     47.0196E-03
            3107            3117     51.5235E-03     47.0196E-03
            3123            3117     51.5235E-03     47.0196E-03
            3108            3117     51.5235E-03     47.0196E-03
            3124            3118     50.7063E-03     48.9670E-03
            3108            3118     50.7063E-03     48.9670E-03
            3109            3118     50.7063E-03     48.9670E-03
            3125            3118     50.7063E-03     48.9670E-03
            3110            3119     51.9047E-03     51.7085E-03
            3125            3119     51.9047E-03     51.7085E-03
            3109            3119     51.9047E-03     51.7085E-03
            3126            3119     51.9047E-03     51.7085E-03
            3110            3120     55.1771E-03     55.0091E-03
            3127            3120     55.1771E-03     55.0091E-03
            3111            3120     55.1771E-03     55.0091E-03
            3126            3120     55.1771E-03     55.0091E-03
            3128            3121     59.5456E-03     59.2046E-03
            3127            3121     59.5456E-03     59.2046E-03
            3111            3121     59.5456E-03     59.2046E-03
            3112            3121     59.5456E-03     59.2046E-03
            3112            3122     64.5044E-03     64.0811E-03
            3128            3122     64.5044E-03     64.0811E-03
            3113            3122     64.5044E-03     64.0811E-03
            3129            3122     64.5044E-03     64.0811E-03
            3114            3123     69.9609E-03     69.4916E-03
            3129            3123     69.9609E-03     69.4916E-03
            3130            3123     69.9609E-03     69.4916E-03
            3113            3123     69.9609E-03     69.4916E-03
            3114            3124     75.8579E-03     75.3786E-03
            3130            3124     75.8579E-03     75.3786E-03
            3115            3124     75.8579E-03     75.3786E-03
            3131            3124     75.8579E-03     75.3786E-03
            3115            3125     82.1272E-03     81.6513E-03
            3132            3125     82.1272E-03     81.6513E-03
            3116            3125     82.1272E-03     81.6513E-03
            3131            3125     82.1272E-03     81.6513E-03
            3133            3126     88.7831E-03     88.3371E-03
            3116            3126     88.7831E-03     88.3371E-03
            3117            3126     88.7831E-03     88.3371E-03
            3132            3126     88.7831E-03     88.3371E-03
            3117            3127     95.1545E-03     94.9011E-03
            3133            3127     95.1545E-03     94.9011E-03
            3118            3127     95.1545E-03     94.9011E-03
            3134            3127     95.1545E-03     94.9011E-03
            3118            3128     101.125E-03     100.999E-03
            3134            3128     101.125E-03     100.999E-03
            3119            3128     101.125E-03     100.999E-03
            3135            3128     101.125E-03     100.999E-03
            3119            3129     102.636E-03     103.932E-03
            3120            3129     102.636E-03     103.932E-03
            3135            3129     102.636E-03     103.932E-03
            3136            3129     102.636E-03     103.932E-03
            3120            3130     98.9246E-03     101.853E-03
            3137            3130     98.9246E-03     101.853E-03
            3121            3130     98.9246E-03     101.853E-03
            3136            3130     98.9246E-03     101.853E-03
            3137            3131     107.609E-03     107.614E-03
            3138            3131     107.609E-03     107.614E-03
            3122            3131     107.609E-03     107.614E-03
            3121            3131     107.609E-03     107.614E-03
            3124            3132     54.5307E-03     53.1786E-03
            3140            3132     54.5307E-03     53.1786E-03
            3123            3132     54.5307E-03     53.1786E-03
            3139            3132     54.5307E-03     53.1786E-03
            3140            3133     53.4183E-03     53.7301E-03
            3124            3133     53.4183E-03     53.7301E-03
            3125            3133     53.4183E-03     53.7301E-03
            3141            3133     53.4183E-03     53.7301E-03
            3126            3134     56.0987E-03     54.4456E-03
            3141            3134     56.0987E-03     54.4456E-03
            3125            3134     56.0987E-03     54.4456E-03
            3142            3134     56.0987E-03     54.4456E-03
            3127            3135     59.9069E-03     56.8602E-03
            3126            3135     59.9069E-03     56.8602E-03
            3143            3135     59.9069E-03     56.8602E-03
            3142            3135     59.9069E-03     56.8602E-03
            3143            3136     64.0182E-03     60.4148E-03
            3127            3136     64.0182E-03     60.4148E-03
            3128            3136     64.0182E-03     60.4148E-03
            3144            3136     64.0182E-03     60.4148E-03
            3128            3137     68.6756E-03     64.5964E-03
            3144            3137     68.6756E-03     64.5964E-03
            3129            3137     68.6756E-03     64.5964E-03
            3145            3137     68.6756E-03     64.5964E-03
            3145            3138     73.7301E-03     69.3242E-03
            3129            3138     73.7301E-03     69.3242E-03
            3130            3138     73.7301E-03     69.3242E-03
            3146            3138     73.7301E-03     69.3242E-03
            3131            3139     79.1205E-03     74.4452E-03
            3146            3139     79.1205E-03     74.4452E-03
            3147            3139     79.1205E-03     74.4452E-03
            3130            3139     79.1205E-03     74.4452E-03
            3132            3140     84.8318E-03     79.9076E-03
            3147            3140     84.8318E-03     79.9076E-03
            3131            3140     84.8318E-03     79.9076E-03
            3148            3140     84.8318E-03     79.9076E-03
            3149            3141     90.5496E-03     85.4353E-03
            3133            3141     90.5496E-03     85.4353E-03
            3148            3141     90.5496E-03     85.4353E-03
            3132            3141     90.5496E-03     85.4353E-03
            3134            3142     96.0517E-03     90.7114E-03
            3149            3142     96.0517E-03     90.7114E-03
            3133            3142     96.0517E-03     90.7114E-03
            3150            3142     96.0517E-03     90.7114E-03
            3135            3143     99.5231E-03     94.3013E-03
            3150            3143     99.5231E-03     94.3013E-03
            3151            3143     99.5231E-03     94.3013E-03
            3134            3143     99.5231E-03     94.3013E-03
            3135            3144     98.4316E-03     93.9153E-03
            3151            3144     98.4316E-03     93.9153E-03
            3152            3144     98.4316E-03     93.9153E-03
            3136            3144     98.4316E-03     93.9153E-03
            3136            3145     85.8331E-03     83.7147E-03
            3153            3145     85.8331E-03     83.7147E-03
            3137            3145     85.8331E-03     83.7147E-03
            3152            3145     85.8331E-03     83.7147E-03
            3138            3146     81.3456E-03     80.0532E-03
            3153            3146     81.3456E-03     80.0532E-03
            3137            3146     81.3456E-03     80.0532E-03
            3154            3146     81.3456E-03     80.0532E-03
            3139            3147     55.1088E-03     60.0664E-03
            3140            3147     55.1088E-03     60.0664E-03
            3155            3147     55.1088E-03     60.0664E-03
            3156            3147     55.1088E-03     60.0664E-03
            3157            3148     57.4770E-03     57.0811E-03
            3140            3148     57.4770E-03     57.0811E-03
            3156            3148     57.4770E-03     57.0811E-03
            3141            3148     57.4770E-03     57.0811E-03
            3157            3149     61.0383E-03     57.2077E-03
            3141            3149     61.0383E-03     57.2077E-03
            3158            3149     61.0383E-03     57.2077E-03
            3142            3149     61.0383E-03     57.2077E-03
            3158            3150     64.5819E-03     59.1423E-03
            3142            3150     64.5819E-03     59.1423E-03
            3143            3150     64.5819E-03     59.1423E-03
            3159            3150     64.5819E-03     59.1423E-03
            3144            3151     68.4823E-03     61.9585E-03
            3159            3151     68.4823E-03     61.9585E-03
            3143            3151     68.4823E-03     61.9585E-03
            3160            3151     68.4823E-03     61.9585E-03
            3145            3152     72.7471E-03     65.4042E-03
            3160            3152     72.7471E-03     65.4042E-03
            3161            3152     72.7471E-03     65.4042E-03
            3144            3152     72.7471E-03     65.4042E-03
            3145            3153     77.2626E-03     69.2477E-03
            3161            3153     77.2626E-03     69.2477E-03
            3162            3153     77.2626E-03     69.2477E-03
            3146            3153     77.2626E-03     69.2477E-03
            3146            3154     81.9629E-03     73.3270E-03
            3162            3154     81.9629E-03     73.3270E-03
            3163            3154     81.9629E-03     73.3270E-03
            3147            3154     81.9629E-03     73.3270E-03
            3163            3155     86.5854E-03     77.4348E-03
            3147            3155     86.5854E-03     77.4348E-03
            3148            3155     86.5854E-03     77.4348E-03
            3164            3155     86.5854E-03     77.4348E-03
            3164            3156     90.8904E-03     81.1375E-03
            3148            3156     90.8904E-03     81.1375E-03
            3149            3156     90.8904E-03     81.1375E-03
            3165            3156     90.8904E-03     81.1375E-03
            3149            3157     94.1645E-03     83.8714E-03
            3165            3157     94.1645E-03     83.8714E-03
            3166            3157     94.1645E-03     83.8714E-03
            3150            3157     94.1645E-03     83.8714E-03
            3167            3158     94.9770E-03     84.0563E-03
            3166            3158     94.9770E-03     84.0563E-03
            3150            3158     94.9770E-03     84.0563E-03
            3151            3158     94.9770E-03     84.0563E-03
            3152            3159     91.4525E-03     79.6463E-03
            3167            3159     91.4525E-03     79.6463E-03
            3168            3159     91.4525E-03     79.6463E-03
            3151            3159     91.4525E-03     79.6463E-03
            3153            3160     77.3740E-03     65.9076E-03
            3168            3160     77.3740E-03     65.9076E-03
            3152            3160     77.3740E-03     65.9076E-03
            3169            3160     77.3740E-03     65.9076E-03
            3169            3161     63.2314E-03     60.7146E-03
            3170            3161     63.2314E-03     60.7146E-03
            3153            3161     63.2314E-03     60.7146E-03
            3154            3161     63.2314E-03     60.7146E-03
            3172            3162     31.3557E-03     34.9993E-03
            3171            3162     31.3557E-03     34.9993E-03
            3155            3162     31.3557E-03     34.9993E-03
            3156            3162     31.3557E-03     34.9993E-03
            3157            3163     34.0518E-03     33.2662E-03
            3173            3163     34.0518E-03     33.2662E-03
            3156            3163     34.0518E-03     33.2662E-03
            3172            3163     34.0518E-03     33.2662E-03
            3174            3164     35.7215E-03     33.4408E-03
            3158            3164     35.7215E-03     33.4408E-03
            3173            3164     35.7215E-03     33.4408E-03
            3157            3164     35.7215E-03     33.4408E-03
            3158            3165     37.5431E-03     34.5239E-03
            3174            3165     37.5431E-03     34.5239E-03
            3159            3165     37.5431E-03     34.5239E-03
            3175            3165     37.5431E-03     34.5239E-03
            3176            3166     39.5683E-03     35.8938E-03
            3175            3166     39.5683E-03     35.8938E-03
            3159            3166     39.5683E-03     35.8938E-03
            3160            3166     39.5683E-03     35.8938E-03
            3161            3167     41.8027E-03     37.6162E-03
            3160            3167     41.8027E-03     37.6162E-03
            3177            3167     41.8027E-03     37.6162E-03
            3176            3167     41.8027E-03     37.6162E-03
            3162            3168     44.1354E-03     39.5250E-03
            3161            3168     44.1354E-03     39.5250E-03
            3177            3168     44.1354E-03     39.5250E-03
            3178            3168     44.1354E-03     39.5250E-03
            3179            3169     46.5202E-03     41.5024E-03
            3178            3169     46.5202E-03     41.5024E-03
            3162            3169     46.5202E-03     41.5024E-03
            3163            3169     46.5202E-03     41.5024E-03
            3163            3170     48.7788E-03     43.4101E-03
            3164            3170     48.7788E-03     43.4101E-03
            3180            3170     48.7788E-03     43.4101E-03
            3179            3170     48.7788E-03     43.4101E-03
            3165            3171     50.7736E-03     45.0263E-03
            3164            3171     50.7736E-03     45.0263E-03
            3180            3171     50.7736E-03     45.0263E-03
            3181            3171     50.7736E-03     45.0263E-03
            3166            3172     51.9479E-03     45.8020E-03
            3165            3172     51.9479E-03     45.8020E-03
            3182            3172     51.9479E-03     45.8020E-03
            3181            3172     51.9479E-03     45.8020E-03
            3167            3173     52.0797E-03     45.3588E-03
            3182            3173     52.0797E-03     45.3588E-03
            3166            3173     52.0797E-03     45.3588E-03
            3183            3173     52.0797E-03     45.3588E-03
            3167            3174     49.4575E-03     42.0126E-03
            3183            3174     49.4575E-03     42.0126E-03
            3168            3174     49.4575E-03     42.0126E-03
            3184            3174     49.4575E-03     42.0126E-03
            3168            3175     43.7321E-03     35.2689E-03
            3169            3175     43.7321E-03     35.2689E-03
            3184            3175     43.7321E-03     35.2689E-03
            3185            3175     43.7321E-03     35.2689E-03
            3186            3176     35.7965E-03     34.3260E-03
            3170            3176     35.7965E-03     34.3260E-03
            3185            3176     35.7965E-03     34.3260E-03
            3169            3176     35.7965E-03     34.3260E-03


  Minimum                            44.7854E-06     76.6045E-06
      At Element                            2640            2640
            Node                             566             566

  Maximum                            409.652E-03     426.908E-03
      At Element                            1073            1768
            Node                             317              16

           Total                         388.207         400.302


Field Output reported at element nodes for region: CRJ700-1.Region_4
   Computation algorithm: EXTRAPOLATE_COMPUTE_AVERAGE
   Averaged at nodes
   Averaging regions: ODB_REGIONS

   Element Label      Node Label         S.Mises         S.Mises
                                          @Loc 1          @Loc 2
-----------------------------------------------------------------
            1089               1     2.26250E-03     2.37430E-03
             545               1     2.26250E-03     2.37430E-03
            1688               4     37.3922E-03     41.9475E-03
            1617               4     37.3922E-03     41.9475E-03
            1074               5     3.50382E-03     3.62999E-03
             560               5     3.50382E-03     3.62999E-03
             640               6     47.6443E-06     102.842E-06
             625               7     155.127E-06     191.663E-06
            1673              11     344.781E-03     358.062E-03
            1602              11     344.781E-03     358.062E-03
            2656              18     55.8709E-03     53.3806E-03
            1752              18     55.8709E-03     53.3806E-03
            1737              20     411.234E-03     438.456E-03
            2641              20     411.234E-03     438.456E-03
            2720              22     45.4769E-03     45.2490E-03
            2384              22     45.4769E-03     45.2490E-03
            2369              23     268.997E-03     281.696E-03
            2705              23     268.997E-03     281.696E-03
            2529              26     6.23628E-03     6.38315E-03
            2915              26     6.23628E-03     6.38315E-03
            2544              30     144.577E-06     406.552E-06
            2930              30     144.577E-06     406.552E-06
            3010              32     154.843E-06     191.321E-06
            2995              34     47.4694E-06     102.847E-06
            1601              99     27.0388E-03     37.2731E-03
            1617              99     27.0388E-03     37.2731E-03
            1585             100     22.7545E-03     35.3555E-03
            1601             100     22.7545E-03     35.3555E-03
            1585             101     29.6838E-03     34.8014E-03
            1569             101     29.6838E-03     34.8014E-03
            1553             102     38.3186E-03     45.5462E-03
            1569             102     38.3186E-03     45.5462E-03
            1537             103     48.2920E-03     57.8847E-03
            1553             103     48.2920E-03     57.8847E-03
            1537             104     41.0604E-03     45.9517E-03
            1521             104     41.0604E-03     45.9517E-03
            1505             105     22.1175E-03     30.5593E-03
            1521             105     22.1175E-03     30.5593E-03
            1489             106     19.5716E-03     27.7198E-03
            1505             106     19.5716E-03     27.7198E-03
            1473             107     23.4835E-03     29.3071E-03
            1489             107     23.4835E-03     29.3071E-03
            1457             108     30.2058E-03     32.9568E-03
            1473             108     30.2058E-03     32.9568E-03
            1457             109     38.1304E-03     42.6140E-03
            1441             109     38.1304E-03     42.6140E-03
            1441             110     45.3456E-03     53.6400E-03
            1425             110     45.3456E-03     53.6400E-03
            1425             111     33.6435E-03     39.5917E-03
            1409             111     33.6435E-03     39.5917E-03
            1409             112     16.2313E-03     22.3046E-03
            1393             112     16.2313E-03     22.3046E-03
            1393             113     17.1178E-03     21.1355E-03
            1377             113     17.1178E-03     21.1355E-03
            1361             114     21.0307E-03     23.8338E-03
            1377             114     21.0307E-03     23.8338E-03
            1345             115     26.4417E-03     26.9787E-03
            1361             115     26.4417E-03     26.9787E-03
            1345             116     32.2920E-03     34.3770E-03
            1329             116     32.2920E-03     34.3770E-03
            1329             117     36.7254E-03     43.0227E-03
            1313             117     36.7254E-03     43.0227E-03
            1313             118     24.5569E-03     31.4175E-03
            1297             118     24.5569E-03     31.4175E-03
            1281             119     13.2171E-03     17.0606E-03
            1297             119     13.2171E-03     17.0606E-03
            1281             120     17.2552E-03     17.6883E-03
            1265             120     17.2552E-03     17.6883E-03
            1249             121     20.7903E-03     19.5969E-03
            1265             121     20.7903E-03     19.5969E-03
            1249             122     24.7703E-03     24.4924E-03
            1233             122     24.7703E-03     24.4924E-03
            1233             123     26.7588E-03     30.5824E-03
            1217             123     26.7588E-03     30.5824E-03
            1217             124     18.8252E-03     24.8692E-03
            1201             124     18.8252E-03     24.8692E-03
            1185             125     13.7063E-03     17.0856E-03
            1201             125     13.7063E-03     17.0856E-03
            1185             126     17.9605E-03     15.9934E-03
            1169             126     17.9605E-03     15.9934E-03
            1153             127     19.2462E-03     17.4697E-03
            1169             127     19.2462E-03     17.4697E-03
            1137             128     20.8682E-03     18.5853E-03
            1153             128     20.8682E-03     18.5853E-03
            1137             129     22.5303E-03     20.9484E-03
            1121             129     22.5303E-03     20.9484E-03
            1121             130     21.5637E-03     24.9853E-03
            1105             130     21.5637E-03     24.9853E-03
            1105             131     12.2295E-03     15.2452E-03
            1089             131     12.2295E-03     15.2452E-03
             546             132     2.27482E-03     2.38258E-03
            1088             132     2.27482E-03     2.38258E-03
             545             132     2.27482E-03     2.38258E-03
            1089             132     2.27482E-03     2.38258E-03
             546             133     2.30214E-03     2.40634E-03
            1087             133     2.30214E-03     2.40634E-03
             547             133     2.30214E-03     2.40634E-03
            1088             133     2.30214E-03     2.40634E-03
            1087             134     2.33636E-03     2.44296E-03
             547             134     2.33636E-03     2.44296E-03
            1086             134     2.33636E-03     2.44296E-03
             548             134     2.33636E-03     2.44296E-03
            1086             135     2.38062E-03     2.48990E-03
             549             135     2.38062E-03     2.48990E-03
            1085             135     2.38062E-03     2.48990E-03
             548             135     2.38062E-03     2.48990E-03
            1085             136     2.43457E-03     2.54591E-03
            1084             136     2.43457E-03     2.54591E-03
             549             136     2.43457E-03     2.54591E-03
             550             136     2.43457E-03     2.54591E-03
             551             137     2.49757E-03     2.61061E-03
             550             137     2.49757E-03     2.61061E-03
            1083             137     2.49757E-03     2.61061E-03
            1084             137     2.49757E-03     2.61061E-03
             551             138     2.56921E-03     2.68311E-03
            1082             138     2.56921E-03     2.68311E-03
             552             138     2.56921E-03     2.68311E-03
            1083             138     2.56921E-03     2.68311E-03
            1082             139     2.64872E-03     2.76309E-03
            1081             139     2.64872E-03     2.76309E-03
             552             139     2.64872E-03     2.76309E-03
             553             139     2.64872E-03     2.76309E-03
             554             140     2.73513E-03     2.84959E-03
            1080             140     2.73513E-03     2.84959E-03
            1081             140     2.73513E-03     2.84959E-03
             553             140     2.73513E-03     2.84959E-03
             555             141     2.82810E-03     2.94218E-03
            1079             141     2.82810E-03     2.94218E-03
            1080             141     2.82810E-03     2.94218E-03
             554             141     2.82810E-03     2.94218E-03
            1079             142     2.92607E-03     3.03989E-03
            1078             142     2.92607E-03     3.03989E-03
             556             142     2.92607E-03     3.03989E-03
             555             142     2.92607E-03     3.03989E-03
             556             143     3.02958E-03     3.14271E-03
             557             143     3.02958E-03     3.14271E-03
            1078             143     3.02958E-03     3.14271E-03
            1077             143     3.02958E-03     3.14271E-03
            1076             144     3.13888E-03     3.25183E-03
            1077             144     3.13888E-03     3.25183E-03
             557             144     3.13888E-03     3.25183E-03
             558             144     3.13888E-03     3.25183E-03
             558             145     3.25868E-03     3.37252E-03
             559             145     3.25868E-03     3.37252E-03
            1076             145     3.25868E-03     3.37252E-03
            1075             145     3.25868E-03     3.37252E-03
             559             146     3.41354E-03     3.53361E-03
            1075             146     3.41354E-03     3.53361E-03
             560             146     3.41354E-03     3.53361E-03
            1074             146     3.41354E-03     3.53361E-03
             576             147     330.714E-06     347.722E-06
             560             147     330.714E-06     347.722E-06
             592             148     250.592E-06     248.871E-06
             576             148     250.592E-06     248.871E-06
             608             149     166.192E-06     168.438E-06
             592             149     166.192E-06     168.438E-06
             624             150     90.7798E-06     85.0228E-06
             608             150     90.7798E-06     85.0228E-06
             624             151     45.3393E-06     77.0169E-06
             640             151     45.3393E-06     77.0169E-06
             640             152     87.9145E-06     98.1629E-06
             639             152     87.9145E-06     98.1629E-06
             639             153     143.997E-06     115.202E-06
             638             153     143.997E-06     115.202E-06
             638             154     177.106E-06     152.519E-06
             637             154     177.106E-06     152.519E-06
             636             155     196.335E-06     172.926E-06
             637             155     196.335E-06     172.926E-06
             636             156     202.213E-06     181.136E-06
             635             156     202.213E-06     181.136E-06
             635             157     204.001E-06     183.476E-06
             634             157     204.001E-06     183.476E-06
             634             158     201.729E-06     182.837E-06
             633             158     201.729E-06     182.837E-06
             633             159     199.162E-06     181.521E-06
             632             159     199.162E-06     181.521E-06
             631             160     195.609E-06     179.467E-06
             632             160     195.609E-06     179.467E-06
             631             161     192.230E-06     177.976E-06
             630             161     192.230E-06     177.976E-06
             629             162     188.893E-06     176.293E-06
             630             162     188.893E-06     176.293E-06
             628             163     185.504E-06     175.512E-06
             629             163     185.504E-06     175.512E-06
             627             164     182.001E-06     174.817E-06
             628             164     182.001E-06     174.817E-06
             627             165     178.024E-06     176.526E-06
             626             165     178.024E-06     176.526E-06
             625             166     165.173E-06     185.160E-06
             626             166     165.173E-06     185.160E-06
             625             167     167.689E-06     183.189E-06
             609             167     167.689E-06     183.189E-06
             609             168     176.728E-06     161.853E-06
             593             168     176.728E-06     161.853E-06
             577             169     169.767E-06     147.862E-06
             593             169     169.767E-06     147.862E-06
             561             170     164.432E-06     148.228E-06
             577             170     164.432E-06     148.228E-06
             561             171     145.013E-06     154.999E-06
             545             171     145.013E-06     154.999E-06
            1074             194     14.2682E-03     16.6429E-03
            1090             194     14.2682E-03     16.6429E-03
            1090             195     26.7786E-03     28.7739E-03
            1106             195     26.7786E-03     28.7739E-03
            1106             196     37.6851E-03     36.6074E-03
            1122             196     37.6851E-03     36.6074E-03
            1122             197     49.7650E-03     48.5027E-03
            1138             197     49.7650E-03     48.5027E-03
            1154             198     60.7848E-03     62.3466E-03
            1138             198     60.7848E-03     62.3466E-03
            1154             199     74.8511E-03     73.9680E-03
            1170             199     74.8511E-03     73.9680E-03
            1186             200     86.6279E-03     90.5666E-03
            1170             200     86.6279E-03     90.5666E-03
            1186             201     82.5581E-03     85.5027E-03
            1202             201     82.5581E-03     85.5027E-03
            1218             202     83.5812E-03     80.8351E-03
            1202             202     83.5812E-03     80.8351E-03
            1218             203     101.798E-03     102.142E-03
            1234             203     101.798E-03     102.142E-03
            1234             204     117.004E-03     119.789E-03
            1250             204     117.004E-03     119.789E-03
            1250             205     132.417E-03     132.560E-03
            1266             205     132.417E-03     132.560E-03
            1282             206     144.981E-03     149.067E-03
            1266             206     144.981E-03     149.067E-03
            1282             207     140.816E-03     144.822E-03
            1298             207     140.816E-03     144.822E-03
            1298             208     144.553E-03     140.739E-03
            1314             208     144.553E-03     140.739E-03
            1314             209     162.387E-03     164.420E-03
            1330             209     162.387E-03     164.420E-03
            1330             210     179.636E-03     181.093E-03
            1346             210     179.636E-03     181.093E-03
            1346             211     192.747E-03     197.253E-03
            1362             211     192.747E-03     197.253E-03
            1362             212     207.814E-03     208.752E-03
            1378             212     207.814E-03     208.752E-03
            1394             213     219.114E-03     223.207E-03
            1378             213     219.114E-03     223.207E-03
            1394             214     212.164E-03     217.816E-03
            1410             214     212.164E-03     217.816E-03
            1410             215     216.638E-03     212.723E-03
            1426             215     216.638E-03     212.723E-03
            1426             216     235.751E-03     238.640E-03
            1442             216     235.751E-03     238.640E-03
            1458             217     253.696E-03     256.502E-03
            1442             217     253.696E-03     256.502E-03
            1458             218     267.029E-03     272.915E-03
            1474             218     267.029E-03     272.915E-03
            1490             219     281.937E-03     283.672E-03
            1474             219     281.937E-03     283.672E-03
            1506             220     292.372E-03     296.520E-03
            1490             220     292.372E-03     296.520E-03
            1506             221     283.669E-03     291.042E-03
            1522             221     283.669E-03     291.042E-03
            1522             222     288.495E-03     286.313E-03
            1538             222     288.495E-03     286.313E-03
            1554             223     311.400E-03     313.397E-03
            1538             223     311.400E-03     313.397E-03
            1570             224     327.317E-03     336.163E-03
            1554             224     327.317E-03     336.163E-03
            1586             225     343.694E-03     345.358E-03
            1570             225     343.694E-03     345.358E-03
            1602             226     352.980E-03     358.110E-03
            1586             226     352.980E-03     358.110E-03
            1752             339     67.6318E-03     57.6685E-03
            1736             339     67.6318E-03     57.6685E-03
            1736             340     80.5264E-03     75.4171E-03
            1720             340     80.5264E-03     75.4171E-03
            1720             341     100.493E-03     104.970E-03
            1704             341     100.493E-03     104.970E-03
            1688             342     76.7730E-03     80.4327E-03
            1704             342     76.7730E-03     80.4327E-03
            1688             343     43.8001E-03     49.7764E-03
            1687             343     43.8001E-03     49.7764E-03
            1616             343     43.8001E-03     49.7764E-03
            1617             343     43.8001E-03     49.7764E-03
            1615             344     58.7085E-03     66.8415E-03
            1616             344     58.7085E-03     66.8415E-03
            1687             344     58.7085E-03     66.8415E-03
            1686             344     58.7085E-03     66.8415E-03
            1686             345     76.5018E-03     85.6183E-03
            1685             345     76.5018E-03     85.6183E-03
            1614             345     76.5018E-03     85.6183E-03
            1615             345     76.5018E-03     85.6183E-03
            1613             346     95.4412E-03     104.989E-03
            1685             346     95.4412E-03     104.989E-03
            1684             346     95.4412E-03     104.989E-03
            1614             346     95.4412E-03     104.989E-03
            1684             347     114.924E-03     124.621E-03
            1683             347     114.924E-03     124.621E-03
            1612             347     114.924E-03     124.621E-03
            1613             347     114.924E-03     124.621E-03
            1683             348     134.597E-03     144.339E-03
            1682             348     134.597E-03     144.339E-03
            1612             348     134.597E-03     144.339E-03
            1611             348     134.597E-03     144.339E-03
            1611             349     154.385E-03     164.089E-03
            1682             349     154.385E-03     164.089E-03
            1610             349     154.385E-03     164.089E-03
            1681             349     154.385E-03     164.089E-03
            1609             350     174.108E-03     183.833E-03
            1680             350     174.108E-03     183.833E-03
            1681             350     174.108E-03     183.833E-03
            1610             350     174.108E-03     183.833E-03
            1679             351     193.832E-03     203.475E-03
            1680             351     193.832E-03     203.475E-03
            1608             351     193.832E-03     203.475E-03
            1609             351     193.832E-03     203.475E-03
            1678             352     213.414E-03     223.017E-03
            1608             352     213.414E-03     223.017E-03
            1679             352     213.414E-03     223.017E-03
            1607             352     213.414E-03     223.017E-03
            1678             353     233.119E-03     242.405E-03
            1606             353     233.119E-03     242.405E-03
            1607             353     233.119E-03     242.405E-03
            1677             353     233.119E-03     242.405E-03
            1676             354     252.835E-03     261.781E-03
            1606             354     252.835E-03     261.781E-03
            1605             354     252.835E-03     261.781E-03
            1677             354     252.835E-03     261.781E-03
            1676             355     273.615E-03     281.787E-03
            1675             355     273.615E-03     281.787E-03
            1605             355     273.615E-03     281.787E-03
            1604             355     273.615E-03     281.787E-03
            1675             356     295.486E-03     303.463E-03
            1603             356     295.486E-03     303.463E-03
            1604             356     295.486E-03     303.463E-03
            1674             356     295.486E-03     303.463E-03
            1674             357     325.500E-03     336.495E-03
            1602             357     325.500E-03     336.495E-03
            1673             357     325.500E-03     336.495E-03
            1603             357     325.500E-03     336.495E-03
            2656             374     56.9052E-03     63.6286E-03
            2655             374     56.9052E-03     63.6286E-03
            1752             374     56.9052E-03     63.6286E-03
            1751             374     56.9052E-03     63.6286E-03
            1751             375     63.6313E-03     84.0529E-03
            1750             375     63.6313E-03     84.0529E-03
            2654             375     63.6313E-03     84.0529E-03
            2655             375     63.6313E-03     84.0529E-03
            1750             376     78.8153E-03     105.876E-03
            1749             376     78.8153E-03     105.876E-03
            2654             376     78.8153E-03     105.876E-03
            2653             376     78.8153E-03     105.876E-03
            2653             377     98.3673E-03     128.226E-03
            1749             377     98.3673E-03     128.226E-03
            1748             377     98.3673E-03     128.226E-03
            2652             377     98.3673E-03     128.226E-03
            2651             378     119.846E-03     150.425E-03
            2652             378     119.846E-03     150.425E-03
            1747             378     119.846E-03     150.425E-03
            1748             378     119.846E-03     150.425E-03
            1747             379     142.741E-03     173.556E-03
            2650             379     142.741E-03     173.556E-03
            2651             379     142.741E-03     173.556E-03
            1746             379     142.741E-03     173.556E-03
            1746             380     166.315E-03     196.996E-03
            2650             380     166.315E-03     196.996E-03
            1745             380     166.315E-03     196.996E-03
            2649             380     166.315E-03     196.996E-03
            1745             381     190.397E-03     220.899E-03
            2648             381     190.397E-03     220.899E-03
            1744             381     190.397E-03     220.899E-03
            2649             381     190.397E-03     220.899E-03
            1744             382     214.922E-03     244.857E-03
            2648             382     214.922E-03     244.857E-03
            1743             382     214.922E-03     244.857E-03
            2647             382     214.922E-03     244.857E-03
            2646             383     239.485E-03     269.211E-03
            2647             383     239.485E-03     269.211E-03
            1743             383     239.485E-03     269.211E-03
            1742             383     239.485E-03     269.211E-03
            1741             384     264.574E-03     293.372E-03
            2645             384     264.574E-03     293.372E-03
            1742             384     264.574E-03     293.372E-03
            2646             384     264.574E-03     293.372E-03
            1740             385     289.318E-03     317.912E-03
            2645             385     289.318E-03     317.912E-03
            1741             385     289.318E-03     317.912E-03
            2644             385     289.318E-03     317.912E-03
            1740             386     315.564E-03     342.765E-03
            2643             386     315.564E-03     342.765E-03
            1739             386     315.564E-03     342.765E-03
            2644             386     315.564E-03     342.765E-03
            1739             387     340.427E-03     366.888E-03
            2643             387     340.427E-03     366.888E-03
            1738             387     340.427E-03     366.888E-03
            2642             387     340.427E-03     366.888E-03
            2642             388     380.977E-03     408.744E-03
            1737             388     380.977E-03     408.744E-03
            2641             388     380.977E-03     408.744E-03
            1738             388     380.977E-03     408.744E-03
            1737             389     425.111E-03     432.043E-03
            1721             389     425.111E-03     432.043E-03
            1705             390     402.641E-03     404.784E-03
            1721             390     402.641E-03     404.784E-03
            1689             391     366.103E-03     370.804E-03
            1705             391     366.103E-03     370.804E-03
            1673             392     343.118E-03     347.052E-03
            1689             392     343.118E-03     347.052E-03
            2704             412     54.1860E-03     55.3603E-03
            2720             412     54.1860E-03     55.3603E-03
            2688             413     44.9630E-03     41.1738E-03
            2704             413     44.9630E-03     41.1738E-03
            2672             414     43.0530E-03     38.9576E-03
            2688             414     43.0530E-03     38.9576E-03
            2672             415     49.4441E-03     48.2166E-03
            2656             415     49.4441E-03     48.2166E-03
            2657             420     373.858E-03     379.567E-03
            2641             420     373.858E-03     379.567E-03
            2657             421     356.167E-03     361.270E-03
            2673             421     356.167E-03     361.270E-03
            2689             422     341.747E-03     354.576E-03
            2673             422     341.747E-03     354.576E-03
            2705             423     295.230E-03     284.535E-03
            2689             423     295.230E-03     284.535E-03
            2369             444     258.738E-03     272.027E-03
            2385             444     258.738E-03     272.027E-03
            2385             445     217.166E-03     204.436E-03
            2401             445     217.166E-03     204.436E-03
            2401             446     205.521E-03     214.550E-03
            2417             446     205.521E-03     214.550E-03
            2433             447     212.984E-03     222.482E-03
            2417             447     212.984E-03     222.482E-03
            2433             448     181.423E-03     179.412E-03
            2449             448     181.423E-03     179.412E-03
            2449             449     144.092E-03     148.303E-03
            2465             449     144.092E-03     148.303E-03
            2481             450     114.145E-03     111.324E-03
            2465             450     114.145E-03     111.324E-03
            2481             451     80.1452E-03     78.5596E-03
            2497             451     80.1452E-03     78.5596E-03
            2513             452     50.0551E-03     56.5817E-03
            2497             452     50.0551E-03     56.5817E-03
            2513             453     24.7994E-03     31.2868E-03
            2529             453     24.7994E-03     31.2868E-03
            2370             507     261.050E-03     270.647E-03
            2705             507     261.050E-03     270.647E-03
            2369             507     261.050E-03     270.647E-03
            2706             507     261.050E-03     270.647E-03
            2707             508     248.202E-03     254.012E-03
            2706             508     248.202E-03     254.012E-03
            2370             508     248.202E-03     254.012E-03
            2371             508     248.202E-03     254.012E-03
            2707             509     233.868E-03     239.379E-03
            2708             509     233.868E-03     239.379E-03
            2372             509     233.868E-03     239.379E-03
            2371             509     233.868E-03     239.379E-03
            2372             510     216.017E-03     222.099E-03
            2708             510     216.017E-03     222.099E-03
            2373             510     216.017E-03     222.099E-03
            2709             510     216.017E-03     222.099E-03
            2374             511     198.752E-03     204.882E-03
            2710             511     198.752E-03     204.882E-03
            2373             511     198.752E-03     204.882E-03
            2709             511     198.752E-03     204.882E-03
            2710             512     181.176E-03     187.275E-03
            2374             512     181.176E-03     187.275E-03
            2375             512     181.176E-03     187.275E-03
            2711             512     181.176E-03     187.275E-03
            2375             513     163.733E-03     169.829E-03
            2376             513     163.733E-03     169.829E-03
            2712             513     163.733E-03     169.829E-03
            2711             513     163.733E-03     169.829E-03
            2712             514     146.354E-03     152.422E-03
            2376             514     146.354E-03     152.422E-03
            2377             514     146.354E-03     152.422E-03
            2713             514     146.354E-03     152.422E-03
            2713             515     129.242E-03     135.290E-03
            2378             515     129.242E-03     135.290E-03
            2714             515     129.242E-03     135.290E-03
            2377             515     129.242E-03     135.290E-03
            2379             516     112.537E-03     118.516E-03
            2714             516     112.537E-03     118.516E-03
            2715             516     112.537E-03     118.516E-03
            2378             516     112.537E-03     118.516E-03
            2380             517     96.4788E-03     102.329E-03
            2715             517     96.4788E-03     102.329E-03
            2716             517     96.4788E-03     102.329E-03
            2379             517     96.4788E-03     102.329E-03
            2717             518     81.5274E-03     87.0687E-03
            2716             518     81.5274E-03     87.0687E-03
            2380             518     81.5274E-03     87.0687E-03
            2381             518     81.5274E-03     87.0687E-03
            2382             519     68.3546E-03     73.4990E-03
            2717             519     68.3546E-03     73.4990E-03
            2718             519     68.3546E-03     73.4990E-03
            2381             519     68.3546E-03     73.4990E-03
            2382             520     58.5208E-03     62.6188E-03
            2718             520     58.5208E-03     62.6188E-03
            2719             520     58.5208E-03     62.6188E-03
            2383             520     58.5208E-03     62.6188E-03
            2719             521     50.0946E-03     51.6291E-03
            2720             521     50.0946E-03     51.6291E-03
            2384             521     50.0946E-03     51.6291E-03
            2383             521     50.0946E-03     51.6291E-03
            2384             522     44.8886E-03     41.9967E-03
            2400             522     44.8886E-03     41.9967E-03
            2416             523     50.8971E-03     51.1809E-03
            2400             523     50.8971E-03     51.1809E-03
            2432             524     43.6067E-03     46.0552E-03
            2416             524     43.6067E-03     46.0552E-03
            2448             525     40.9320E-03     41.8620E-03
            2432             525     40.9320E-03     41.8620E-03
            2464             526     46.9803E-03     41.3864E-03
            2448             526     46.9803E-03     41.3864E-03
            2464             527     50.9417E-03     44.8494E-03
            2480             527     50.9417E-03     44.8494E-03
            2496             528     54.8240E-03     48.7114E-03
            2480             528     54.8240E-03     48.7114E-03
            2496             529     59.1629E-03     55.4257E-03
            2512             529     59.1629E-03     55.4257E-03
            2528             530     58.7194E-03     65.6554E-03
            2512             530     58.7194E-03     65.6554E-03
            2544             531     28.5185E-03     34.2823E-03
            2528             531     28.5185E-03     34.2823E-03
            2929             532     310.274E-06     538.267E-06
            2930             532     310.274E-06     538.267E-06
            2543             532     310.274E-06     538.267E-06
            2544             532     310.274E-06     538.267E-06
            2543             533     676.875E-06     854.411E-06
            2542             533     676.875E-06     854.411E-06
            2928             533     676.875E-06     854.411E-06
            2929             533     676.875E-06     854.411E-06
            2542             534     1.07915E-03     1.23449E-03
            2928             534     1.07915E-03     1.23449E-03
            2541             534     1.07915E-03     1.23449E-03
            2927             534     1.07915E-03     1.23449E-03
            2541             535     1.48324E-03     1.62929E-03
            2927             535     1.48324E-03     1.62929E-03
            2926             535     1.48324E-03     1.62929E-03
            2540             535     1.48324E-03     1.62929E-03
            2926             536     1.88811E-03     2.02927E-03
            2539             536     1.88811E-03     2.02927E-03
            2925             536     1.88811E-03     2.02927E-03
            2540             536     1.88811E-03     2.02927E-03
            2538             537     2.29348E-03     2.43193E-03
            2925             537     2.29348E-03     2.43193E-03
            2924             537     2.29348E-03     2.43193E-03
            2539             537     2.29348E-03     2.43193E-03
            2924             538     2.69947E-03     2.83594E-03
            2538             538     2.69947E-03     2.83594E-03
            2923             538     2.69947E-03     2.83594E-03
            2537             538     2.69947E-03     2.83594E-03
            2536             539     3.10596E-03     3.24106E-03
            2923             539     3.10596E-03     3.24106E-03
            2922             539     3.10596E-03     3.24106E-03
            2537             539     3.10596E-03     3.24106E-03
            2536             540     3.51258E-03     3.64666E-03
            2535             540     3.51258E-03     3.64666E-03
            2922             540     3.51258E-03     3.64666E-03
            2921             540     3.51258E-03     3.64666E-03
            2921             541     3.91962E-03     4.05272E-03
            2920             541     3.91962E-03     4.05272E-03
            2534             541     3.91962E-03     4.05272E-03
            2535             541     3.91962E-03     4.05272E-03
            2534             542     4.32609E-03     4.45873E-03
            2533             542     4.32609E-03     4.45873E-03
            2920             542     4.32609E-03     4.45873E-03
            2919             542     4.32609E-03     4.45873E-03
            2532             543     4.73304E-03     4.86508E-03
            2533             543     4.73304E-03     4.86508E-03
            2919             543     4.73304E-03     4.86508E-03
            2918             543     4.73304E-03     4.86508E-03
            2531             544     5.14116E-03     5.27335E-03
            2532             544     5.14116E-03     5.27335E-03
            2918             544     5.14116E-03     5.27335E-03
            2917             544     5.14116E-03     5.27335E-03
            2530             545     5.55562E-03     5.68916E-03
            2531             545     5.55562E-03     5.68916E-03
            2917             545     5.55562E-03     5.68916E-03
            2916             545     5.55562E-03     5.68916E-03
            2530             546     6.00142E-03     6.14182E-03
            2916             546     6.00142E-03     6.14182E-03
            2915             546     6.00142E-03     6.14182E-03
            2529             546     6.00142E-03     6.14182E-03
            3010             582     167.393E-06     182.911E-06
            2994             582     167.393E-06     182.911E-06
            2978             583     176.519E-06     161.637E-06
            2994             583     176.519E-06     161.637E-06
            2978             584     169.692E-06     147.647E-06
            2962             584     169.692E-06     147.647E-06
            2946             585     164.378E-06     148.161E-06
            2962             585     164.378E-06     148.161E-06
            2930             586     144.997E-06     155.068E-06
            2946             586     144.997E-06     155.068E-06
            2979             596     44.7854E-06     76.6045E-06
            2995             596     44.7854E-06     76.6045E-06
            2979             597     89.7259E-06     84.0537E-06
            2963             597     89.7259E-06     84.0537E-06
            2947             598     164.918E-06     167.155E-06
            2963             598     164.918E-06     167.155E-06
            2947             599     249.046E-06     247.304E-06
            2931             599     249.046E-06     247.304E-06
            2915             600     328.773E-06     345.900E-06
            2931             600     328.773E-06     345.900E-06
            3009             616     164.899E-06     184.806E-06
            3010             616     164.899E-06     184.806E-06
            3008             617     177.739E-06     176.167E-06
            3009             617     177.739E-06     176.167E-06
            3007             618     181.685E-06     174.465E-06
            3008             618     181.685E-06     174.465E-06
            3006             619     185.171E-06     175.151E-06
            3007             619     185.171E-06     175.151E-06
            3006             620     188.535E-06     175.914E-06
            3005             620     188.535E-06     175.914E-06
            3005             621     191.854E-06     177.574E-06
            3004             621     191.854E-06     177.574E-06
            3003             622     195.216E-06     179.044E-06
            3004             622     195.216E-06     179.044E-06
            3002             623     198.759E-06     181.086E-06
            3003             623     198.759E-06     181.086E-06
            3002             624     201.333E-06     182.410E-06
            3001             624     201.333E-06     182.410E-06
            3001             625     203.642E-06     183.081E-06
            3000             625     203.642E-06     183.081E-06
            3000             626     201.941E-06     180.834E-06
            2999             626     201.941E-06     180.834E-06
            2998             627     196.201E-06     172.772E-06
            2999             627     196.201E-06     172.772E-06
            2997             628     177.137E-06     152.558E-06
            2998             628     177.137E-06     152.558E-06
            2996             629     144.263E-06     115.496E-06
            2997             629     144.263E-06     115.496E-06
            2995             630     88.0426E-06     98.3803E-06
            2996             630     88.0426E-06     98.3803E-06
             545            1130     144.224E-06     155.891E-06
             562            1130     144.224E-06     155.891E-06
             561            1130     144.224E-06     155.891E-06
             546            1130     144.224E-06     155.891E-06
             546            1131     144.762E-06     156.179E-06
             562            1131     144.762E-06     156.179E-06
             563            1131     144.762E-06     156.179E-06
             547            1131     144.762E-06     156.179E-06
             547            1132     146.864E-06     157.378E-06
             563            1132     146.864E-06     157.378E-06
             564            1132     146.864E-06     157.378E-06
             548            1132     146.864E-06     157.378E-06
             565            1133     148.214E-06     161.525E-06
             549            1133     148.214E-06     161.525E-06
             564            1133     148.214E-06     161.525E-06
             548            1133     148.214E-06     161.525E-06
             565            1134     150.076E-06     165.925E-06
             566            1134     150.076E-06     165.925E-06
             549            1134     150.076E-06     165.925E-06
             550            1134     150.076E-06     165.925E-06
             550            1135     153.044E-06     170.710E-06
             566            1135     153.044E-06     170.710E-06
             567            1135     153.044E-06     170.710E-06
             551            1135     153.044E-06     170.710E-06
             567            1136     156.756E-06     176.029E-06
             568            1136     156.756E-06     176.029E-06
             552            1136     156.756E-06     176.029E-06
             551            1136     156.756E-06     176.029E-06
             552            1137     161.400E-06     181.816E-06
             569            1137     161.400E-06     181.816E-06
             568            1137     161.400E-06     181.816E-06
             553            1137     161.400E-06     181.816E-06
             554            1138     166.536E-06     187.867E-06
             569            1138     166.536E-06     187.867E-06
             570            1138     166.536E-06     187.867E-06
             553            1138     166.536E-06     187.867E-06
             555            1139     172.222E-06     194.264E-06
             554            1139     172.222E-06     194.264E-06
             570            1139     172.222E-06     194.264E-06
             571            1139     172.222E-06     194.264E-06
             571            1140     177.760E-06     200.412E-06
             556            1140     177.760E-06     200.412E-06
             572            1140     177.760E-06     200.412E-06
             555            1140     177.760E-06     200.412E-06
             556            1141     183.562E-06     207.212E-06
             557            1141     183.562E-06     207.212E-06
             572            1141     183.562E-06     207.212E-06
             573            1141     183.562E-06     207.212E-06
             557            1142     190.615E-06     215.088E-06
             573            1142     190.615E-06     215.088E-06
             558            1142     190.615E-06     215.088E-06
             574            1142     190.615E-06     215.088E-06
             559            1143     213.884E-06     238.427E-06
             558            1143     213.884E-06     238.427E-06
             575            1143     213.884E-06     238.427E-06
             574            1143     213.884E-06     238.427E-06
             576            1144     282.118E-06     302.902E-06
             575            1144     282.118E-06     302.902E-06
             560            1144     282.118E-06     302.902E-06
             559            1144     282.118E-06     302.902E-06
             561            1145     160.210E-06     152.122E-06
             562            1145     160.210E-06     152.122E-06
             577            1145     160.210E-06     152.122E-06
             578            1145     160.210E-06     152.122E-06
             563            1146     154.851E-06     158.085E-06
             578            1146     154.851E-06     158.085E-06
             579            1146     154.851E-06     158.085E-06
             562            1146     154.851E-06     158.085E-06
             564            1147     154.274E-06     161.471E-06
             580            1147     154.274E-06     161.471E-06
             579            1147     154.274E-06     161.471E-06
             563            1147     154.274E-06     161.471E-06
             581            1148     155.422E-06     164.438E-06
             564            1148     155.422E-06     164.438E-06
             580            1148     155.422E-06     164.438E-06
             565            1148     155.422E-06     164.438E-06
             566            1149     157.645E-06     167.980E-06
             565            1149     157.645E-06     167.980E-06
             581            1149     157.645E-06     167.980E-06
             582            1149     157.645E-06     167.980E-06
             567            1150     160.917E-06     172.057E-06
             566            1150     160.917E-06     172.057E-06
             583            1150     160.917E-06     172.057E-06
             582            1150     160.917E-06     172.057E-06
             568            1151     164.966E-06     176.968E-06
             567            1151     164.966E-06     176.968E-06
             583            1151     164.966E-06     176.968E-06
             584            1151     164.966E-06     176.968E-06
             584            1152     169.814E-06     182.449E-06
             568            1152     169.814E-06     182.449E-06
             585            1152     169.814E-06     182.449E-06
             569            1152     169.814E-06     182.449E-06
             570            1153     175.694E-06     188.726E-06
             586            1153     175.694E-06     188.726E-06
             569            1153     175.694E-06     188.726E-06
             585            1153     175.694E-06     188.726E-06
             571            1154     182.080E-06     195.681E-06
             586            1154     182.080E-06     195.681E-06
             587            1154     182.080E-06     195.681E-06
             570            1154     182.080E-06     195.681E-06
             588            1155     189.696E-06     203.315E-06
             571            1155     189.696E-06     203.315E-06
             587            1155     189.696E-06     203.315E-06
             572            1155     189.696E-06     203.315E-06
             572            1156     196.461E-06     211.155E-06
             589            1156     196.461E-06     211.155E-06
             588            1156     196.461E-06     211.155E-06
             573            1156     196.461E-06     211.155E-06
             590            1157     202.304E-06     217.402E-06
             574            1157     202.304E-06     217.402E-06
             573            1157     202.304E-06     217.402E-06
             589            1157     202.304E-06     217.402E-06
             574            1158     214.131E-06     225.941E-06
             591            1158     214.131E-06     225.941E-06
             575            1158     214.131E-06     225.941E-06
             590            1158     214.131E-06     225.941E-06
             591            1159     236.398E-06     240.371E-06
             592            1159     236.398E-06     240.371E-06
             575            1159     236.398E-06     240.371E-06
             576            1159     236.398E-06     240.371E-06
             578            1160     169.223E-06     151.764E-06
             577            1160     169.223E-06     151.764E-06
             593            1160     169.223E-06     151.764E-06
             594            1160     169.223E-06     151.764E-06
             594            1161     165.428E-06     160.297E-06
             578            1161     165.428E-06     160.297E-06
             595            1161     165.428E-06     160.297E-06
             579            1161     165.428E-06     160.297E-06
             596            1162     161.763E-06     165.836E-06
             579            1162     161.763E-06     165.836E-06
             580            1162     161.763E-06     165.836E-06
             595            1162     161.763E-06     165.836E-06
             581            1163     163.022E-06     167.533E-06
             597            1163     163.022E-06     167.533E-06
             596            1163     163.022E-06     167.533E-06
             580            1163     163.022E-06     167.533E-06
             582            1164     165.863E-06     169.974E-06
             597            1164     165.863E-06     169.974E-06
             598            1164     165.863E-06     169.974E-06
             581            1164     165.863E-06     169.974E-06
             583            1165     169.150E-06     173.494E-06
             582            1165     169.150E-06     173.494E-06
             599            1165     169.150E-06     173.494E-06
             598            1165     169.150E-06     173.494E-06
             600            1166     173.296E-06     177.564E-06
             584            1166     173.296E-06     177.564E-06
             599            1166     173.296E-06     177.564E-06
             583            1166     173.296E-06     177.564E-06
             600            1167     178.230E-06     182.584E-06
             585            1167     178.230E-06     182.584E-06
             601            1167     178.230E-06     182.584E-06
             584            1167     178.230E-06     182.584E-06
             585            1168     183.952E-06     188.434E-06
             601            1168     183.952E-06     188.434E-06
             602            1168     183.952E-06     188.434E-06
             586            1168     183.952E-06     188.434E-06
             586            1169     191.037E-06     195.308E-06
             603            1169     191.037E-06     195.308E-06
             602            1169     191.037E-06     195.308E-06
             587            1169     191.037E-06     195.308E-06
             588            1170     198.401E-06     203.149E-06
             603            1170     198.401E-06     203.149E-06
             604            1170     198.401E-06     203.149E-06
             587            1170     198.401E-06     203.149E-06
             589            1171     205.933E-06     210.176E-06
             605            1171     205.933E-06     210.176E-06
             604            1171     205.933E-06     210.176E-06
             588            1171     205.933E-06     210.176E-06
             605            1172     207.574E-06     213.759E-06
             606            1172     207.574E-06     213.759E-06
             590            1172     207.574E-06     213.759E-06
             589            1172     207.574E-06     213.759E-06
             590            1173     187.784E-06     198.252E-06
             606            1173     187.784E-06     198.252E-06
             591            1173     187.784E-06     198.252E-06
             607            1173     187.784E-06     198.252E-06
             592            1174     168.491E-06     175.314E-06
             608            1174     168.491E-06     175.314E-06
             607            1174     168.491E-06     175.314E-06
             591            1174     168.491E-06     175.314E-06
             610            1175     172.436E-06     165.493E-06
             594            1175     172.436E-06     165.493E-06
             609            1175     172.436E-06     165.493E-06
             593            1175     172.436E-06     165.493E-06
             594            1176     168.004E-06     169.141E-06
             611            1176     168.004E-06     169.141E-06
             595            1176     168.004E-06     169.141E-06
             610            1176     168.004E-06     169.141E-06
             596            1177     169.272E-06     169.302E-06
             595            1177     169.272E-06     169.302E-06
             611            1177     169.272E-06     169.302E-06
             612            1177     169.272E-06     169.302E-06
             613            1178     171.672E-06     170.399E-06
             596            1178     171.672E-06     170.399E-06
             612            1178     171.672E-06     170.399E-06
             597            1178     171.672E-06     170.399E-06
             597            1179     174.498E-06     172.363E-06
             613            1179     174.498E-06     172.363E-06
             614            1179     174.498E-06     172.363E-06
             598            1179     174.498E-06     172.363E-06
             615            1180     177.988E-06     174.872E-06
             614            1180     177.988E-06     174.872E-06
             599            1180     177.988E-06     174.872E-06
             598            1180     177.988E-06     174.872E-06
             616            1181     181.884E-06     178.200E-06
             615            1181     181.884E-06     178.200E-06
             600            1181     181.884E-06     178.200E-06
             599            1181     181.884E-06     178.200E-06
             616            1182     186.344E-06     182.044E-06
             601            1182     186.344E-06     182.044E-06
             617            1182     186.344E-06     182.044E-06
             600            1182     186.344E-06     182.044E-06
             601            1183     191.427E-06     186.629E-06
             602            1183     191.427E-06     186.629E-06
             618            1183     191.427E-06     186.629E-06
             617            1183     191.427E-06     186.629E-06
             602            1184     197.008E-06     191.799E-06
             603            1184     197.008E-06     191.799E-06
             619            1184     197.008E-06     191.799E-06
             618            1184     197.008E-06     191.799E-06
             604            1185     202.797E-06     197.046E-06
             619            1185     202.797E-06     197.046E-06
             620            1185     202.797E-06     197.046E-06
             603            1185     202.797E-06     197.046E-06
             621            1186     206.623E-06     200.622E-06
             605            1186     206.623E-06     200.622E-06
             620            1186     206.623E-06     200.622E-06
             604            1186     206.623E-06     200.622E-06
             606            1187     201.961E-06     196.598E-06
             622            1187     201.961E-06     196.598E-06
             621            1187     201.961E-06     196.598E-06
             605            1187     201.961E-06     196.598E-06
             607            1188     166.913E-06     167.892E-06
             606            1188     166.913E-06     167.892E-06
             622            1188     166.913E-06     167.892E-06
             623            1188     166.913E-06     167.892E-06
             607            1189     114.029E-06     114.576E-06
             623            1189     114.029E-06     114.576E-06
             608            1189     114.029E-06     114.576E-06
             624            1189     114.029E-06     114.576E-06
             625            1190     168.836E-06     180.770E-06
             626            1190     168.836E-06     180.770E-06
             610            1190     168.836E-06     180.770E-06
             609            1190     168.836E-06     180.770E-06
             611            1191     172.747E-06     175.591E-06
             626            1191     172.747E-06     175.591E-06
             627            1191     172.747E-06     175.591E-06
             610            1191     172.747E-06     175.591E-06
             611            1192     177.536E-06     172.870E-06
             627            1192     177.536E-06     172.870E-06
             628            1192     177.536E-06     172.870E-06
             612            1192     177.536E-06     172.870E-06
             628            1193     180.893E-06     173.619E-06
             629            1193     180.893E-06     173.619E-06
             613            1193     180.893E-06     173.619E-06
             612            1193     180.893E-06     173.619E-06
             613            1194     183.920E-06     174.998E-06
             629            1194     183.920E-06     174.998E-06
             630            1194     183.920E-06     174.998E-06
             614            1194     183.920E-06     174.998E-06
             614            1195     187.382E-06     176.766E-06
             615            1195     187.382E-06     176.766E-06
             630            1195     187.382E-06     176.766E-06
             631            1195     187.382E-06     176.766E-06
             632            1196     190.964E-06     179.029E-06
             616            1196     190.964E-06     179.029E-06
             615            1196     190.964E-06     179.029E-06
             631            1196     190.964E-06     179.029E-06
             633            1197     194.708E-06     181.559E-06
             616            1197     194.708E-06     181.559E-06
             617            1197     194.708E-06     181.559E-06
             632            1197     194.708E-06     181.559E-06
             633            1198     198.428E-06     184.120E-06
             618            1198     198.428E-06     184.120E-06
             617            1198     198.428E-06     184.120E-06
             634            1198     198.428E-06     184.120E-06
             618            1199     201.473E-06     186.332E-06
             634            1199     201.473E-06     186.332E-06
             619            1199     201.473E-06     186.332E-06
             635            1199     201.473E-06     186.332E-06
             619            1200     203.216E-06     186.778E-06
             620            1200     203.216E-06     186.778E-06
             636            1200     203.216E-06     186.778E-06
             635            1200     203.216E-06     186.778E-06
             637            1201     200.160E-06     183.163E-06
             621            1201     200.160E-06     183.163E-06
             620            1201     200.160E-06     183.163E-06
             636            1201     200.160E-06     183.163E-06
             638            1202     186.902E-06     168.470E-06
             637            1202     186.902E-06     168.470E-06
             622            1202     186.902E-06     168.470E-06
             621            1202     186.902E-06     168.470E-06
             639            1203     153.937E-06     134.089E-06
             622            1203     153.937E-06     134.089E-06
             638            1203     153.937E-06     134.089E-06
             623            1203     153.937E-06     134.089E-06
             624            1204     88.0132E-06     94.1880E-06
             623            1204     88.0132E-06     94.1880E-06
             639            1204     88.0132E-06     94.1880E-06
             640            1204     88.0132E-06     94.1880E-06
            1090            1511     15.6169E-03     15.0499E-03
            1091            1511     15.6169E-03     15.0499E-03
            1075            1511     15.6169E-03     15.0499E-03
            1074            1511     15.6169E-03     15.0499E-03
            1092            1512     18.2286E-03     14.9375E-03
            1091            1512     18.2286E-03     14.9375E-03
            1075            1512     18.2286E-03     14.9375E-03
            1076            1512     18.2286E-03     14.9375E-03
            1076            1513     20.4324E-03     17.4378E-03
            1092            1513     20.4324E-03     17.4378E-03
            1093            1513     20.4324E-03     17.4378E-03
            1077            1513     20.4324E-03     17.4378E-03
            1078            1514     21.4131E-03     18.6850E-03
            1094            1514     21.4131E-03     18.6850E-03
            1077            1514     21.4131E-03     18.6850E-03
            1093            1514     21.4131E-03     18.6850E-03
            1078            1515     21.3422E-03     18.8267E-03
            1094            1515     21.3422E-03     18.8267E-03
            1095            1515     21.3422E-03     18.8267E-03
            1079            1515     21.3422E-03     18.8267E-03
            1080            1516     20.8544E-03     18.4882E-03
            1096            1516     20.8544E-03     18.4882E-03
            1095            1516     20.8544E-03     18.4882E-03
            1079            1516     20.8544E-03     18.4882E-03
            1096            1517     20.0427E-03     17.8144E-03
            1081            1517     20.0427E-03     17.8144E-03
            1097            1517     20.0427E-03     17.8144E-03
            1080            1517     20.0427E-03     17.8144E-03
            1098            1518     19.1203E-03     17.0184E-03
            1082            1518     19.1203E-03     17.0184E-03
            1081            1518     19.1203E-03     17.0184E-03
            1097            1518     19.1203E-03     17.0184E-03
            1098            1519     18.1436E-03     16.1909E-03
            1099            1519     18.1436E-03     16.1909E-03
            1083            1519     18.1436E-03     16.1909E-03
            1082            1519     18.1436E-03     16.1909E-03
            1084            1520     17.1864E-03     15.3893E-03
            1083            1520     17.1864E-03     15.3893E-03
            1099            1520     17.1864E-03     15.3893E-03
            1100            1520     17.1864E-03     15.3893E-03
            1084            1521     16.2660E-03     14.6647E-03
            1085            1521     16.2660E-03     14.6647E-03
            1101            1521     16.2660E-03     14.6647E-03
            1100            1521     16.2660E-03     14.6647E-03
            1101            1522     15.4325E-03     14.0892E-03
            1086            1522     15.4325E-03     14.0892E-03
            1102            1522     15.4325E-03     14.0892E-03
            1085            1522     15.4325E-03     14.0892E-03
            1086            1523     14.6888E-03     13.6523E-03
            1103            1523     14.6888E-03     13.6523E-03
            1087            1523     14.6888E-03     13.6523E-03
            1102            1523     14.6888E-03     13.6523E-03
            1087            1524     14.0059E-03     13.6159E-03
            1104            1524     14.0059E-03     13.6159E-03
            1103            1524     14.0059E-03     13.6159E-03
            1088            1524     14.0059E-03     13.6159E-03
            1089            1525     12.9572E-03     14.5309E-03
            1105            1525     12.9572E-03     14.5309E-03
            1104            1525     12.9572E-03     14.5309E-03
            1088            1525     12.9572E-03     14.5309E-03
            1091            1526     26.8450E-03     25.8750E-03
            1107            1526     26.8450E-03     25.8750E-03
            1106            1526     26.8450E-03     25.8750E-03
            1090            1526     26.8450E-03     25.8750E-03
            1091            1527     31.2545E-03     26.8532E-03
            1092            1527     31.2545E-03     26.8532E-03
            1108            1527     31.2545E-03     26.8532E-03
            1107            1527     31.2545E-03     26.8532E-03
            1092            1528     36.7573E-03     32.0375E-03
            1108            1528     36.7573E-03     32.0375E-03
            1109            1528     36.7573E-03     32.0375E-03
            1093            1528     36.7573E-03     32.0375E-03
            1110            1529     38.0764E-03     33.6568E-03
            1093            1529     38.0764E-03     33.6568E-03
            1109            1529     38.0764E-03     33.6568E-03
            1094            1529     38.0764E-03     33.6568E-03
            1110            1530     37.7059E-03     33.5056E-03
            1111            1530     37.7059E-03     33.5056E-03
            1095            1530     37.7059E-03     33.5056E-03
            1094            1530     37.7059E-03     33.5056E-03
            1111            1531     36.3354E-03     32.3281E-03
            1112            1531     36.3354E-03     32.3281E-03
            1095            1531     36.3354E-03     32.3281E-03
            1096            1531     36.3354E-03     32.3281E-03
            1096            1532     34.5427E-03     30.7542E-03
            1097            1532     34.5427E-03     30.7542E-03
            1113            1532     34.5427E-03     30.7542E-03
            1112            1532     34.5427E-03     30.7542E-03
            1097            1533     32.6108E-03     29.0046E-03
            1114            1533     32.6108E-03     29.0046E-03
            1098            1533     32.6108E-03     29.0046E-03
            1113            1533     32.6108E-03     29.0046E-03
            1114            1534     30.6400E-03     27.2578E-03
            1098            1534     30.6400E-03     27.2578E-03
            1099            1534     30.6400E-03     27.2578E-03
            1115            1534     30.6400E-03     27.2578E-03
            1116            1535     28.7369E-03     25.5989E-03
            1115            1535     28.7369E-03     25.5989E-03
            1099            1535     28.7369E-03     25.5989E-03
            1100            1535     28.7369E-03     25.5989E-03
            1116            1536     26.9337E-03     24.1036E-03
            1117            1536     26.9337E-03     24.1036E-03
            1100            1536     26.9337E-03     24.1036E-03
            1101            1536     26.9337E-03     24.1036E-03
            1117            1537     25.2719E-03     22.8703E-03
            1101            1537     25.2719E-03     22.8703E-03
            1118            1537     25.2719E-03     22.8703E-03
            1102            1537     25.2719E-03     22.8703E-03
            1119            1538     23.7735E-03     22.0396E-03
            1102            1538     23.7735E-03     22.0396E-03
            1118            1538     23.7735E-03     22.0396E-03
            1103            1538     23.7735E-03     22.0396E-03
            1103            1539     22.2749E-03     21.9994E-03
            1120            1539     22.2749E-03     21.9994E-03
            1104            1539     22.2749E-03     21.9994E-03
            1119            1539     22.2749E-03     21.9994E-03
            1105            1540     21.5342E-03     23.6174E-03
            1121            1540     21.5342E-03     23.6174E-03
            1120            1540     21.5342E-03     23.6174E-03
            1104            1540     21.5342E-03     23.6174E-03
            1123            1541     34.2373E-03     33.6813E-03
            1122            1541     34.2373E-03     33.6813E-03
            1107            1541     34.2373E-03     33.6813E-03
            1106            1541     34.2373E-03     33.6813E-03
            1108            1542     34.7613E-03     33.9957E-03
            1123            1542     34.7613E-03     33.9957E-03
            1107            1542     34.7613E-03     33.9957E-03
            1124            1542     34.7613E-03     33.9957E-03
            1109            1543     39.5028E-03     37.7789E-03
            1124            1543     39.5028E-03     37.7789E-03
            1125            1543     39.5028E-03     37.7789E-03
            1108            1543     39.5028E-03     37.7789E-03
            1125            1544     39.9562E-03     37.8867E-03
            1110            1544     39.9562E-03     37.8867E-03
            1126            1544     39.9562E-03     37.8867E-03
            1109            1544     39.9562E-03     37.8867E-03
            1111            1545     38.5486E-03     36.4052E-03
            1126            1545     38.5486E-03     36.4052E-03
            1127            1545     38.5486E-03     36.4052E-03
            1110            1545     38.5486E-03     36.4052E-03
            1112            1546     36.3034E-03     34.2266E-03
            1128            1546     36.3034E-03     34.2266E-03
            1111            1546     36.3034E-03     34.2266E-03
            1127            1546     36.3034E-03     34.2266E-03
            1129            1547     33.9361E-03     31.9195E-03
            1112            1547     33.9361E-03     31.9195E-03
            1113            1547     33.9361E-03     31.9195E-03
            1128            1547     33.9361E-03     31.9195E-03
            1130            1548     31.5546E-03     29.6206E-03
            1113            1548     31.5546E-03     29.6206E-03
            1129            1548     31.5546E-03     29.6206E-03
            1114            1548     31.5546E-03     29.6206E-03
            1114            1549     29.2849E-03     27.4412E-03
            1130            1549     29.2849E-03     27.4412E-03
            1115            1549     29.2849E-03     27.4412E-03
            1131            1549     29.2849E-03     27.4412E-03
            1115            1550     27.1378E-03     25.4072E-03
            1116            1550     27.1378E-03     25.4072E-03
            1132            1550     27.1378E-03     25.4072E-03
            1131            1550     27.1378E-03     25.4072E-03
            1117            1551     25.1389E-03     23.5799E-03
            1132            1551     25.1389E-03     23.5799E-03
            1133            1551     25.1389E-03     23.5799E-03
            1116            1551     25.1389E-03     23.5799E-03
            1118            1552     23.3542E-03     22.0149E-03
            1117            1552     23.3542E-03     22.0149E-03
            1134            1552     23.3542E-03     22.0149E-03
            1133            1552     23.3542E-03     22.0149E-03
            1118            1553     21.6934E-03     20.9360E-03
            1119            1553     21.6934E-03     20.9360E-03
            1135            1553     21.6934E-03     20.9360E-03
            1134            1553     21.6934E-03     20.9360E-03
            1119            1554     20.5747E-03     20.6736E-03
            1120            1554     20.5747E-03     20.6736E-03
            1135            1554     20.5747E-03     20.6736E-03
            1136            1554     20.5747E-03     20.6736E-03
            1120            1555     21.4078E-03     20.8614E-03
            1136            1555     21.4078E-03     20.8614E-03
            1121            1555     21.4078E-03     20.8614E-03
            1137            1555     21.4078E-03     20.8614E-03
            1123            1556     44.8660E-03     44.7904E-03
            1122            1556     44.8660E-03     44.7904E-03
            1139            1556     44.8660E-03     44.7904E-03
            1138            1556     44.8660E-03     44.7904E-03
            1139            1557     40.3539E-03     41.4832E-03
            1140            1557     40.3539E-03     41.4832E-03
            1123            1557     40.3539E-03     41.4832E-03
            1124            1557     40.3539E-03     41.4832E-03
            1124            1558     41.2808E-03     41.8637E-03
            1125            1558     41.2808E-03     41.8637E-03
            1140            1558     41.2808E-03     41.8637E-03
            1141            1558     41.2808E-03     41.8637E-03
            1141            1559     40.6089E-03     40.6273E-03
            1142            1559     40.6089E-03     40.6273E-03
            1125            1559     40.6089E-03     40.6273E-03
            1126            1559     40.6089E-03     40.6273E-03
            1142            1560     38.2077E-03     38.1512E-03
            1143            1560     38.2077E-03     38.1512E-03
            1126            1560     38.2077E-03     38.1512E-03
            1127            1560     38.2077E-03     38.1512E-03
            1127            1561     35.6148E-03     35.4713E-03
            1143            1561     35.6148E-03     35.4713E-03
            1144            1561     35.6148E-03     35.4713E-03
            1128            1561     35.6148E-03     35.4713E-03
            1144            1562     32.8826E-03     32.7176E-03
            1129            1562     32.8826E-03     32.7176E-03
            1145            1562     32.8826E-03     32.7176E-03
            1128            1562     32.8826E-03     32.7176E-03
            1130            1563     30.2755E-03     30.1036E-03
            1146            1563     30.2755E-03     30.1036E-03
            1145            1563     30.2755E-03     30.1036E-03
            1129            1563     30.2755E-03     30.1036E-03
            1130            1564     27.7936E-03     27.6216E-03
            1147            1564     27.7936E-03     27.6216E-03
            1146            1564     27.7936E-03     27.6216E-03
            1131            1564     27.7936E-03     27.6216E-03
            1147            1565     25.4653E-03     25.3080E-03
            1132            1565     25.4653E-03     25.3080E-03
            1148            1565     25.4653E-03     25.3080E-03
            1131            1565     25.4653E-03     25.3080E-03
            1149            1566     23.3135E-03     23.1888E-03
            1132            1566     23.3135E-03     23.1888E-03
            1133            1566     23.3135E-03     23.1888E-03
            1148            1566     23.3135E-03     23.1888E-03
            1149            1567     21.3978E-03     21.3399E-03
            1134            1567     21.3978E-03     21.3399E-03
            1150            1567     21.3978E-03     21.3399E-03
            1133            1567     21.3978E-03     21.3399E-03
            1135            1568     19.9573E-03     19.9086E-03
            1150            1568     19.9573E-03     19.9086E-03
            1134            1568     19.9573E-03     19.9086E-03
            1151            1568     19.9573E-03     19.9086E-03
            1151            1569     19.5136E-03     18.9019E-03
            1152            1569     19.5136E-03     18.9019E-03
            1136            1569     19.5136E-03     18.9019E-03
            1135            1569     19.5136E-03     18.9019E-03
            1153            1570     20.2448E-03     18.5372E-03
            1152            1570     20.2448E-03     18.5372E-03
            1137            1570     20.2448E-03     18.5372E-03
            1136            1570     20.2448E-03     18.5372E-03
            1139            1571     55.2893E-03     56.5450E-03
            1154            1571     55.2893E-03     56.5450E-03
            1155            1571     55.2893E-03     56.5450E-03
            1138            1571     55.2893E-03     56.5450E-03
            1140            1572     47.2485E-03     48.6268E-03
            1155            1572     47.2485E-03     48.6268E-03
            1156            1572     47.2485E-03     48.6268E-03
            1139            1572     47.2485E-03     48.6268E-03
            1141            1573     42.8074E-03     44.7948E-03
            1156            1573     42.8074E-03     44.7948E-03
            1140            1573     42.8074E-03     44.7948E-03
            1157            1573     42.8074E-03     44.7948E-03
            1158            1574     39.6388E-03     41.7000E-03
            1142            1574     39.6388E-03     41.7000E-03
            1157            1574     39.6388E-03     41.7000E-03
            1141            1574     39.6388E-03     41.7000E-03
            1142            1575     36.9174E-03     38.8036E-03
            1158            1575     36.9174E-03     38.8036E-03
            1159            1575     36.9174E-03     38.8036E-03
            1143            1575     36.9174E-03     38.8036E-03
            1143            1576     34.0755E-03     35.8525E-03
            1144            1576     34.0755E-03     35.8525E-03
            1160            1576     34.0755E-03     35.8525E-03
            1159            1576     34.0755E-03     35.8525E-03
            1160            1577     31.3227E-03     33.0337E-03
            1161            1577     31.3227E-03     33.0337E-03
            1145            1577     31.3227E-03     33.0337E-03
            1144            1577     31.3227E-03     33.0337E-03
            1162            1578     28.6591E-03     30.3094E-03
            1161            1578     28.6591E-03     30.3094E-03
            1145            1578     28.6591E-03     30.3094E-03
            1146            1578     28.6591E-03     30.3094E-03
            1163            1579     26.1064E-03     27.7041E-03
            1162            1579     26.1064E-03     27.7041E-03
            1147            1579     26.1064E-03     27.7041E-03
            1146            1579     26.1064E-03     27.7041E-03
            1147            1580     23.6897E-03     25.2273E-03
            1148            1580     23.6897E-03     25.2273E-03
            1163            1580     23.6897E-03     25.2273E-03
            1164            1580     23.6897E-03     25.2273E-03
            1148            1581     21.4526E-03     22.9020E-03
            1165            1581     21.4526E-03     22.9020E-03
            1164            1581     21.4526E-03     22.9020E-03
            1149            1581     21.4526E-03     22.9020E-03
            1165            1582     19.4668E-03     20.8197E-03
            1149            1582     19.4668E-03     20.8197E-03
            1150            1582     19.4668E-03     20.8197E-03
            1166            1582     19.4668E-03     20.8197E-03
            1167            1583     18.1497E-03     19.0319E-03
            1151            1583     18.1497E-03     19.0319E-03
            1166            1583     18.1497E-03     19.0319E-03
            1150            1583     18.1497E-03     19.0319E-03
            1151            1584     17.9362E-03     17.5867E-03
            1152            1584     17.9362E-03     17.5867E-03
            1168            1584     17.9362E-03     17.5867E-03
            1167            1584     17.9362E-03     17.5867E-03
            1168            1585     18.6845E-03     17.2155E-03
            1153            1585     18.6845E-03     17.2155E-03
            1152            1585     18.6845E-03     17.2155E-03
            1169            1585     18.6845E-03     17.2155E-03
            1154            1586     66.4148E-03     66.7539E-03
            1170            1586     66.4148E-03     66.7539E-03
            1171            1586     66.4148E-03     66.7539E-03
            1155            1586     66.4148E-03     66.7539E-03
            1156            1587     51.6523E-03     54.1847E-03
            1155            1587     51.6523E-03     54.1847E-03
            1171            1587     51.6523E-03     54.1847E-03
            1172            1587     51.6523E-03     54.1847E-03
            1156            1588     42.4900E-03     46.2311E-03
            1172            1588     42.4900E-03     46.2311E-03
            1173            1588     42.4900E-03     46.2311E-03
            1157            1588     42.4900E-03     46.2311E-03
            1157            1589     38.0061E-03     41.9126E-03
            1173            1589     38.0061E-03     41.9126E-03
            1174            1589     38.0061E-03     41.9126E-03
            1158            1589     38.0061E-03     41.9126E-03
            1175            1590     34.8672E-03     38.6412E-03
            1158            1590     34.8672E-03     38.6412E-03
            1174            1590     34.8672E-03     38.6412E-03
            1159            1590     34.8672E-03     38.6412E-03
            1160            1591     32.0377E-03     35.7297E-03
            1175            1591     32.0377E-03     35.7297E-03
            1159            1591     32.0377E-03     35.7297E-03
            1176            1591     32.0377E-03     35.7297E-03
            1161            1592     29.3829E-03     32.9948E-03
            1160            1592     29.3829E-03     32.9948E-03
            1176            1592     29.3829E-03     32.9948E-03
            1177            1592     29.3829E-03     32.9948E-03
            1162            1593     26.7774E-03     30.3179E-03
            1177            1593     26.7774E-03     30.3179E-03
            1178            1593     26.7774E-03     30.3179E-03
            1161            1593     26.7774E-03     30.3179E-03
            1178            1594     24.2510E-03     27.7088E-03
            1179            1594     24.2510E-03     27.7088E-03
            1163            1594     24.2510E-03     27.7088E-03
            1162            1594     24.2510E-03     27.7088E-03
            1163            1595     21.8191E-03     25.1566E-03
            1180            1595     21.8191E-03     25.1566E-03
            1164            1595     21.8191E-03     25.1566E-03
            1179            1595     21.8191E-03     25.1566E-03
            1181            1596     19.5437E-03     22.7216E-03
            1164            1596     19.5437E-03     22.7216E-03
            1165            1596     19.5437E-03     22.7216E-03
            1180            1596     19.5437E-03     22.7216E-03
            1181            1597     17.5803E-03     20.4487E-03
            1166            1597     17.5803E-03     20.4487E-03
            1182            1597     17.5803E-03     20.4487E-03
            1165            1597     17.5803E-03     20.4487E-03
            1167            1598     16.0145E-03     18.4547E-03
            1183            1598     16.0145E-03     18.4547E-03
            1166            1598     16.0145E-03     18.4547E-03
            1182            1598     16.0145E-03     18.4547E-03
            1167            1599     15.4705E-03     17.0718E-03
            1168            1599     15.4705E-03     17.0718E-03
            1184            1599     15.4705E-03     17.0718E-03
            1183            1599     15.4705E-03     17.0718E-03
            1168            1600     16.7851E-03     16.2966E-03
            1169            1600     16.7851E-03     16.2966E-03
            1185            1600     16.7851E-03     16.2966E-03
            1184            1600     16.7851E-03     16.2966E-03
            1186            1601     72.1483E-03     77.0565E-03
            1170            1601     72.1483E-03     77.0565E-03
            1171            1601     72.1483E-03     77.0565E-03
            1187            1601     72.1483E-03     77.0565E-03
            1172            1602     50.9145E-03     56.7422E-03
            1171            1602     50.9145E-03     56.7422E-03
            1187            1602     50.9145E-03     56.7422E-03
            1188            1602     50.9145E-03     56.7422E-03
            1172            1603     41.2868E-03     47.0203E-03
            1173            1603     41.2868E-03     47.0203E-03
            1189            1603     41.2868E-03     47.0203E-03
            1188            1603     41.2868E-03     47.0203E-03
            1189            1604     36.2800E-03     41.9468E-03
            1174            1604     36.2800E-03     41.9468E-03
            1173            1604     36.2800E-03     41.9468E-03
            1190            1604     36.2800E-03     41.9468E-03
            1174            1605     32.7181E-03     38.3904E-03
            1191            1605     32.7181E-03     38.3904E-03
            1190            1605     32.7181E-03     38.3904E-03
            1175            1605     32.7181E-03     38.3904E-03
            1192            1606     29.9474E-03     35.5748E-03
            1191            1606     29.9474E-03     35.5748E-03
            1175            1606     29.9474E-03     35.5748E-03
            1176            1606     29.9474E-03     35.5748E-03
            1192            1607     27.3189E-03     32.8977E-03
            1193            1607     27.3189E-03     32.8977E-03
            1176            1607     27.3189E-03     32.8977E-03
            1177            1607     27.3189E-03     32.8977E-03
            1177            1608     24.7857E-03     30.3061E-03
            1194            1608     24.7857E-03     30.3061E-03
            1193            1608     24.7857E-03     30.3061E-03
            1178            1608     24.7857E-03     30.3061E-03
            1194            1609     22.2886E-03     27.7053E-03
            1179            1609     22.2886E-03     27.7053E-03
            1195            1609     22.2886E-03     27.7053E-03
            1178            1609     22.2886E-03     27.7053E-03
            1179            1610     19.8707E-03     25.1462E-03
            1196            1610     19.8707E-03     25.1462E-03
            1195            1610     19.8707E-03     25.1462E-03
            1180            1610     19.8707E-03     25.1462E-03
            1181            1611     17.6072E-03     22.6434E-03
            1196            1611     17.6072E-03     22.6434E-03
            1197            1611     17.6072E-03     22.6434E-03
            1180            1611     17.6072E-03     22.6434E-03
            1197            1612     15.6068E-03     20.2730E-03
            1182            1612     15.6068E-03     20.2730E-03
            1198            1612     15.6068E-03     20.2730E-03
            1181            1612     15.6068E-03     20.2730E-03
            1182            1613     13.9856E-03     18.1923E-03
            1183            1613     13.9856E-03     18.1923E-03
            1199            1613     13.9856E-03     18.1923E-03
            1198            1613     13.9856E-03     18.1923E-03
            1183            1614     12.7681E-03     16.6752E-03
            1184            1614     12.7681E-03     16.6752E-03
            1200            1614     12.7681E-03     16.6752E-03
            1199            1614     12.7681E-03     16.6752E-03
            1185            1615     12.9868E-03     16.5846E-03
            1184            1615     12.9868E-03     16.5846E-03
            1201            1615     12.9868E-03     16.5846E-03
            1200            1615     12.9868E-03     16.5846E-03
            1186            1616     77.4981E-03     79.3483E-03
            1202            1616     77.4981E-03     79.3483E-03
            1203            1616     77.4981E-03     79.3483E-03
            1187            1616     77.4981E-03     79.3483E-03
            1203            1617     70.3910E-03     70.7383E-03
            1204            1617     70.3910E-03     70.7383E-03
            1187            1617     70.3910E-03     70.7383E-03
            1188            1617     70.3910E-03     70.7383E-03
            1189            1618     66.0917E-03     66.3669E-03
            1188            1618     66.0917E-03     66.3669E-03
            1204            1618     66.0917E-03     66.3669E-03
            1205            1618     66.0917E-03     66.3669E-03
            1190            1619     61.8389E-03     62.4297E-03
            1206            1619     61.8389E-03     62.4297E-03
            1189            1619     61.8389E-03     62.4297E-03
            1205            1619     61.8389E-03     62.4297E-03
            1191            1620     57.8144E-03     58.5540E-03
            1207            1620     57.8144E-03     58.5540E-03
            1190            1620     57.8144E-03     58.5540E-03
            1206            1620     57.8144E-03     58.5540E-03
            1207            1621     53.6977E-03     54.5531E-03
            1191            1621     53.6977E-03     54.5531E-03
            1208            1621     53.6977E-03     54.5531E-03
            1192            1621     53.6977E-03     54.5531E-03
            1192            1622     49.5367E-03     50.4384E-03
            1208            1622     49.5367E-03     50.4384E-03
            1209            1622     49.5367E-03     50.4384E-03
            1193            1622     49.5367E-03     50.4384E-03
            1209            1623     45.3489E-03     46.2914E-03
            1210            1623     45.3489E-03     46.2914E-03
            1194            1623     45.3489E-03     46.2914E-03
            1193            1623     45.3489E-03     46.2914E-03
            1210            1624     41.1588E-03     42.0965E-03
            1195            1624     41.1588E-03     42.0965E-03
            1211            1624     41.1588E-03     42.0965E-03
            1194            1624     41.1588E-03     42.0965E-03
            1196            1625     37.0352E-03     37.9888E-03
            1212            1625     37.0352E-03     37.9888E-03
            1211            1625     37.0352E-03     37.9888E-03
            1195            1625     37.0352E-03     37.9888E-03
            1212            1626     33.0635E-03     33.9750E-03
            1213            1626     33.0635E-03     33.9750E-03
            1197            1626     33.0635E-03     33.9750E-03
            1196            1626     33.0635E-03     33.9750E-03
            1198            1627     29.3293E-03     30.2428E-03
            1213            1627     29.3293E-03     30.2428E-03
            1197            1627     29.3293E-03     30.2428E-03
            1214            1627     29.3293E-03     30.2428E-03
            1214            1628     26.0323E-03     26.8584E-03
            1215            1628     26.0323E-03     26.8584E-03
            1198            1628     26.0323E-03     26.8584E-03
            1199            1628     26.0323E-03     26.8584E-03
            1215            1629     23.1258E-03     24.3875E-03
            1199            1629     23.1258E-03     24.3875E-03
            1216            1629     23.1258E-03     24.3875E-03
            1200            1629     23.1258E-03     24.3875E-03
            1200            1630     20.2629E-03     24.1803E-03
            1216            1630     20.2629E-03     24.1803E-03
            1217            1630     20.2629E-03     24.1803E-03
            1201            1630     20.2629E-03     24.1803E-03
            1203            1631     88.2137E-03     84.8887E-03
            1218            1631     88.2137E-03     84.8887E-03
            1202            1631     88.2137E-03     84.8887E-03
            1219            1631     88.2137E-03     84.8887E-03
            1219            1632     93.9466E-03     89.9502E-03
            1203            1632     93.9466E-03     89.9502E-03
            1220            1632     93.9466E-03     89.9502E-03
            1204            1632     93.9466E-03     89.9502E-03
            1205            1633     93.5312E-03     89.6235E-03
            1204            1633     93.5312E-03     89.6235E-03
            1220            1633     93.5312E-03     89.6235E-03
            1221            1633     93.5312E-03     89.6235E-03
            1221            1634     89.6869E-03     85.8815E-03
            1222            1634     89.6869E-03     85.8815E-03
            1205            1634     89.6869E-03     85.8815E-03
            1206            1634     89.6869E-03     85.8815E-03
            1223            1635     84.3363E-03     80.6607E-03
            1222            1635     84.3363E-03     80.6607E-03
            1207            1635     84.3363E-03     80.6607E-03
            1206            1635     84.3363E-03     80.6607E-03
            1223            1636     78.3486E-03     74.8484E-03
            1208            1636     78.3486E-03     74.8484E-03
            1224            1636     78.3486E-03     74.8484E-03
            1207            1636     78.3486E-03     74.8484E-03
            1224            1637     72.2586E-03     68.8042E-03
            1209            1637     72.2586E-03     68.8042E-03
            1225            1637     72.2586E-03     68.8042E-03
            1208            1637     72.2586E-03     68.8042E-03
            1209            1638     66.0773E-03     62.7169E-03
            1225            1638     66.0773E-03     62.7169E-03
            1210            1638     66.0773E-03     62.7169E-03
            1226            1638     66.0773E-03     62.7169E-03
            1227            1639     59.9674E-03     56.6663E-03
            1226            1639     59.9674E-03     56.6663E-03
            1210            1639     59.9674E-03     56.6663E-03
            1211            1639     59.9674E-03     56.6663E-03
            1211            1640     53.9229E-03     50.7242E-03
            1212            1640     53.9229E-03     50.7242E-03
            1228            1640     53.9229E-03     50.7242E-03
            1227            1640     53.9229E-03     50.7242E-03
            1229            1641     48.0429E-03     44.9793E-03
            1228            1641     48.0429E-03     44.9793E-03
            1212            1641     48.0429E-03     44.9793E-03
            1213            1641     48.0429E-03     44.9793E-03
            1213            1642     42.4254E-03     39.5719E-03
            1230            1642     42.4254E-03     39.5719E-03
            1214            1642     42.4254E-03     39.5719E-03
            1229            1642     42.4254E-03     39.5719E-03
            1230            1643     37.1154E-03     34.7198E-03
            1214            1643     37.1154E-03     34.7198E-03
            1215            1643     37.1154E-03     34.7198E-03
            1231            1643     37.1154E-03     34.7198E-03
            1231            1644     32.2335E-03     31.1471E-03
            1232            1644     32.2335E-03     31.1471E-03
            1215            1644     32.2335E-03     31.1471E-03
            1216            1644     32.2335E-03     31.1471E-03
            1232            1645     28.3457E-03     30.2063E-03
            1233            1645     28.3457E-03     30.2063E-03
            1216            1645     28.3457E-03     30.2063E-03
            1217            1645     28.3457E-03     30.2063E-03
            1219            1646     100.232E-03     101.434E-03
            1235            1646     100.232E-03     101.434E-03
            1218            1646     100.232E-03     101.434E-03
            1234            1646     100.232E-03     101.434E-03
            1236            1647     99.0291E-03     100.196E-03
            1220            1647     99.0291E-03     100.196E-03
            1219            1647     99.0291E-03     100.196E-03
            1235            1647     99.0291E-03     100.196E-03
            1220            1648     97.0518E-03     96.8584E-03
            1236            1648     97.0518E-03     96.8584E-03
            1237            1648     97.0518E-03     96.8584E-03
            1221            1648     97.0518E-03     96.8584E-03
            1221            1649     91.2800E-03     90.6786E-03
            1222            1649     91.2800E-03     90.6786E-03
            1237            1649     91.2800E-03     90.6786E-03
            1238            1649     91.2800E-03     90.6786E-03
            1223            1650     84.5311E-03     83.8750E-03
            1222            1650     84.5311E-03     83.8750E-03
            1239            1650     84.5311E-03     83.8750E-03
            1238            1650     84.5311E-03     83.8750E-03
            1240            1651     77.7632E-03     77.0328E-03
            1239            1651     77.7632E-03     77.0328E-03
            1223            1651     77.7632E-03     77.0328E-03
            1224            1651     77.7632E-03     77.0328E-03
            1225            1652     70.9822E-03     70.2591E-03
            1240            1652     70.9822E-03     70.2591E-03
            1241            1652     70.9822E-03     70.2591E-03
            1224            1652     70.9822E-03     70.2591E-03
            1241            1653     64.3491E-03     63.6115E-03
            1242            1653     64.3491E-03     63.6115E-03
            1225            1653     64.3491E-03     63.6115E-03
            1226            1653     64.3491E-03     63.6115E-03
            1226            1654     57.8066E-03     57.0838E-03
            1243            1654     57.8066E-03     57.0838E-03
            1242            1654     57.8066E-03     57.0838E-03
            1227            1654     57.8066E-03     57.0838E-03
            1228            1655     51.4181E-03     50.6810E-03
            1244            1655     51.4181E-03     50.6810E-03
            1227            1655     51.4181E-03     50.6810E-03
            1243            1655     51.4181E-03     50.6810E-03
            1245            1656     45.1561E-03     44.4532E-03
            1228            1656     45.1561E-03     44.4532E-03
            1244            1656     45.1561E-03     44.4532E-03
            1229            1656     45.1561E-03     44.4532E-03
            1246            1657     39.1415E-03     38.5012E-03
            1245            1657     39.1415E-03     38.5012E-03
            1229            1657     39.1415E-03     38.5012E-03
            1230            1657     39.1415E-03     38.5012E-03
            1247            1658     33.3914E-03     33.0904E-03
            1230            1658     33.3914E-03     33.0904E-03
            1231            1658     33.3914E-03     33.0904E-03
            1246            1658     33.3914E-03     33.0904E-03
            1231            1659     28.0892E-03     28.9396E-03
            1247            1659     28.0892E-03     28.9396E-03
            1248            1659     28.0892E-03     28.9396E-03
            1232            1659     28.0892E-03     28.9396E-03
            1249            1660     25.2029E-03     25.9037E-03
            1248            1660     25.2029E-03     25.9037E-03
            1233            1660     25.2029E-03     25.9037E-03
            1232            1660     25.2029E-03     25.9037E-03
            1235            1661     112.708E-03     115.618E-03
            1251            1661     112.708E-03     115.618E-03
            1234            1661     112.708E-03     115.618E-03
            1250            1661     112.708E-03     115.618E-03
            1236            1662     105.185E-03     108.143E-03
            1252            1662     105.185E-03     108.143E-03
            1235            1662     105.185E-03     108.143E-03
            1251            1662     105.185E-03     108.143E-03
            1236            1663     98.0284E-03     100.807E-03
            1252            1663     98.0284E-03     100.807E-03
            1253            1663     98.0284E-03     100.807E-03
            1237            1663     98.0284E-03     100.807E-03
            1254            1664     90.5102E-03     93.0238E-03
            1237            1664     90.5102E-03     93.0238E-03
            1253            1664     90.5102E-03     93.0238E-03
            1238            1664     90.5102E-03     93.0238E-03
            1255            1665     83.3342E-03     85.5795E-03
            1254            1665     83.3342E-03     85.5795E-03
            1238            1665     83.3342E-03     85.5795E-03
            1239            1665     83.3342E-03     85.5795E-03
            1256            1666     76.2163E-03     78.3092E-03
            1239            1666     76.2163E-03     78.3092E-03
            1240            1666     76.2163E-03     78.3092E-03
            1255            1666     76.2163E-03     78.3092E-03
            1240            1667     69.2221E-03     71.2599E-03
            1257            1667     69.2221E-03     71.2599E-03
            1256            1667     69.2221E-03     71.2599E-03
            1241            1667     69.2221E-03     71.2599E-03
            1258            1668     62.3390E-03     64.3428E-03
            1241            1668     62.3390E-03     64.3428E-03
            1257            1668     62.3390E-03     64.3428E-03
            1242            1668     62.3390E-03     64.3428E-03
            1258            1669     55.5629E-03     57.5350E-03
            1242            1669     55.5629E-03     57.5350E-03
            1259            1669     55.5629E-03     57.5350E-03
            1243            1669     55.5629E-03     57.5350E-03
            1243            1670     48.8811E-03     50.8268E-03
            1259            1670     48.8811E-03     50.8268E-03
            1260            1670     48.8811E-03     50.8268E-03
            1244            1670     48.8811E-03     50.8268E-03
            1244            1671     42.3443E-03     44.2440E-03
            1261            1671     42.3443E-03     44.2440E-03
            1245            1671     42.3443E-03     44.2440E-03
            1260            1671     42.3443E-03     44.2440E-03
            1245            1672     35.9302E-03     37.8437E-03
            1262            1672     35.9302E-03     37.8437E-03
            1246            1672     35.9302E-03     37.8437E-03
            1261            1672     35.9302E-03     37.8437E-03
            1262            1673     29.8658E-03     31.9424E-03
            1263            1673     29.8658E-03     31.9424E-03
            1247            1673     29.8658E-03     31.9424E-03
            1246            1673     29.8658E-03     31.9424E-03
            1247            1674     24.9189E-03     26.5713E-03
            1263            1674     24.9189E-03     26.5713E-03
            1264            1674     24.9189E-03     26.5713E-03
            1248            1674     24.9189E-03     26.5713E-03
            1264            1675     21.8114E-03     21.7673E-03
            1265            1675     21.8114E-03     21.7673E-03
            1248            1675     21.8114E-03     21.7673E-03
            1249            1675     21.8114E-03     21.7673E-03
            1266            1676     124.623E-03     126.235E-03
            1267            1676     124.623E-03     126.235E-03
            1251            1676     124.623E-03     126.235E-03
            1250            1676     124.623E-03     126.235E-03
            1268            1677     108.742E-03     112.923E-03
            1267            1677     108.742E-03     112.923E-03
            1252            1677     108.742E-03     112.923E-03
            1251            1677     108.742E-03     112.923E-03
            1269            1678     96.1824E-03     101.526E-03
            1252            1678     96.1824E-03     101.526E-03
            1253            1678     96.1824E-03     101.526E-03
            1268            1678     96.1824E-03     101.526E-03
            1269            1679     88.0854E-03     93.2639E-03
            1253            1679     88.0854E-03     93.2639E-03
            1254            1679     88.0854E-03     93.2639E-03
            1270            1679     88.0854E-03     93.2639E-03
            1254            1680     80.8387E-03     85.7741E-03
            1271            1680     80.8387E-03     85.7741E-03
            1255            1680     80.8387E-03     85.7741E-03
            1270            1680     80.8387E-03     85.7741E-03
            1256            1681     73.7911E-03     78.6666E-03
            1255            1681     73.7911E-03     78.6666E-03
            1271            1681     73.7911E-03     78.6666E-03
            1272            1681     73.7911E-03     78.6666E-03
            1256            1682     66.8868E-03     71.7032E-03
            1273            1682     66.8868E-03     71.7032E-03
            1257            1682     66.8868E-03     71.7032E-03
            1272            1682     66.8868E-03     71.7032E-03
            1274            1683     59.9815E-03     64.7936E-03
            1258            1683     59.9815E-03     64.7936E-03
            1273            1683     59.9815E-03     64.7936E-03
            1257            1683     59.9815E-03     64.7936E-03
            1258            1684     53.1325E-03     57.9229E-03
            1274            1684     53.1325E-03     57.9229E-03
            1275            1684     53.1325E-03     57.9229E-03
            1259            1684     53.1325E-03     57.9229E-03
            1260            1685     46.3179E-03     51.0815E-03
            1275            1685     46.3179E-03     51.0815E-03
            1276            1685     46.3179E-03     51.0815E-03
            1259            1685     46.3179E-03     51.0815E-03
            1260            1686     39.5697E-03     44.2913E-03
            1261            1686     39.5697E-03     44.2913E-03
            1276            1686     39.5697E-03     44.2913E-03
            1277            1686     39.5697E-03     44.2913E-03
            1261            1687     32.9527E-03     37.6232E-03
            1262            1687     32.9527E-03     37.6232E-03
            1278            1687     32.9527E-03     37.6232E-03
            1277            1687     32.9527E-03     37.6232E-03
            1279            1688     26.6185E-03     31.1556E-03
            1262            1688     26.6185E-03     31.1556E-03
            1263            1688     26.6185E-03     31.1556E-03
            1278            1688     26.6185E-03     31.1556E-03
            1263            1689     21.4191E-03     24.9950E-03
            1280            1689     21.4191E-03     24.9950E-03
            1264            1689     21.4191E-03     24.9950E-03
            1279            1689     21.4191E-03     24.9950E-03
            1264            1690     18.2740E-03     19.8630E-03
            1281            1690     18.2740E-03     19.8630E-03
            1265            1690     18.2740E-03     19.8630E-03
            1280            1690     18.2740E-03     19.8630E-03
            1283            1691     129.549E-03     135.083E-03
            1267            1691     129.549E-03     135.083E-03
            1266            1691     129.549E-03     135.083E-03
            1282            1691     129.549E-03     135.083E-03
            1283            1692     105.926E-03     113.012E-03
            1284            1692     105.926E-03     113.012E-03
            1268            1692     105.926E-03     113.012E-03
            1267            1692     105.926E-03     113.012E-03
            1284            1693     93.3010E-03     100.546E-03
            1268            1693     93.3010E-03     100.546E-03
            1285            1693     93.3010E-03     100.546E-03
            1269            1693     93.3010E-03     100.546E-03
            1269            1694     84.9267E-03     92.3297E-03
            1285            1694     84.9267E-03     92.3297E-03
            1286            1694     84.9267E-03     92.3297E-03
            1270            1694     84.9267E-03     92.3297E-03
            1286            1695     77.6483E-03     85.1935E-03
            1271            1695     77.6483E-03     85.1935E-03
            1270            1695     77.6483E-03     85.1935E-03
            1287            1695     77.6483E-03     85.1935E-03
            1272            1696     70.8899E-03     78.4892E-03
            1288            1696     70.8899E-03     78.4892E-03
            1271            1696     70.8899E-03     78.4892E-03
            1287            1696     70.8899E-03     78.4892E-03
            1288            1697     64.1269E-03     71.7798E-03
            1289            1697     64.1269E-03     71.7798E-03
            1272            1697     64.1269E-03     71.7798E-03
            1273            1697     64.1269E-03     71.7798E-03
            1274            1698     57.3865E-03     65.0578E-03
            1289            1698     57.3865E-03     65.0578E-03
            1290            1698     57.3865E-03     65.0578E-03
            1273            1698     57.3865E-03     65.0578E-03
            1290            1699     50.5744E-03     58.2662E-03
            1275            1699     50.5744E-03     58.2662E-03
            1274            1699     50.5744E-03     58.2662E-03
            1291            1699     50.5744E-03     58.2662E-03
            1275            1700     43.7635E-03     51.4587E-03
            1291            1700     43.7635E-03     51.4587E-03
            1292            1700     43.7635E-03     51.4587E-03
            1276            1700     43.7635E-03     51.4587E-03
            1277            1701     36.9353E-03     44.6209E-03
            1293            1701     36.9353E-03     44.6209E-03
            1292            1701     36.9353E-03     44.6209E-03
            1276            1701     36.9353E-03     44.6209E-03
            1294            1702     30.2112E-03     37.8286E-03
            1293            1702     30.2112E-03     37.8286E-03
            1277            1702     30.2112E-03     37.8286E-03
            1278            1702     30.2112E-03     37.8286E-03
            1278            1703     23.7479E-03     31.0211E-03
            1279            1703     23.7479E-03     31.0211E-03
            1294            1703     23.7479E-03     31.0211E-03
            1295            1703     23.7479E-03     31.0211E-03
            1296            1704     17.7743E-03     24.6376E-03
            1280            1704     17.7743E-03     24.6376E-03
            1295            1704     17.7743E-03     24.6376E-03
            1279            1704     17.7743E-03     24.6376E-03
            1281            1705     14.0941E-03     19.3672E-03
            1296            1705     14.0941E-03     19.3672E-03
            1280            1705     14.0941E-03     19.3672E-03
            1297            1705     14.0941E-03     19.3672E-03
            1283            1706     134.138E-03     136.534E-03
            1282            1706     134.138E-03     136.534E-03
            1298            1706     134.138E-03     136.534E-03
            1299            1706     134.138E-03     136.534E-03
            1283            1707     124.060E-03     124.737E-03
            1284            1707     124.060E-03     124.737E-03
            1300            1707     124.060E-03     124.737E-03
            1299            1707     124.060E-03     124.737E-03
            1301            1708     116.861E-03     118.078E-03
            1284            1708     116.861E-03     118.078E-03
            1285            1708     116.861E-03     118.078E-03
            1300            1708     116.861E-03     118.078E-03
            1302            1709     109.611E-03     111.584E-03
            1286            1709     109.611E-03     111.584E-03
            1285            1709     109.611E-03     111.584E-03
            1301            1709     109.611E-03     111.584E-03
            1286            1710     102.319E-03     104.733E-03
            1287            1710     102.319E-03     104.733E-03
            1303            1710     102.319E-03     104.733E-03
            1302            1710     102.319E-03     104.733E-03
            1303            1711     94.7159E-03     97.4922E-03
            1287            1711     94.7159E-03     97.4922E-03
            1304            1711     94.7159E-03     97.4922E-03
            1288            1711     94.7159E-03     97.4922E-03
            1305            1712     86.9263E-03     89.8358E-03
            1304            1712     86.9263E-03     89.8358E-03
            1289            1712     86.9263E-03     89.8358E-03
            1288            1712     86.9263E-03     89.8358E-03
            1306            1713     78.9328E-03     81.9727E-03
            1305            1713     78.9328E-03     81.9727E-03
            1290            1713     78.9328E-03     81.9727E-03
            1289            1713     78.9328E-03     81.9727E-03
            1290            1714     70.8854E-03     73.9930E-03
            1291            1714     70.8854E-03     73.9930E-03
            1307            1714     70.8854E-03     73.9930E-03
            1306            1714     70.8854E-03     73.9930E-03
            1291            1715     62.7934E-03     65.9886E-03
            1308            1715     62.7934E-03     65.9886E-03
            1307            1715     62.7934E-03     65.9886E-03
            1292            1715     62.7934E-03     65.9886E-03
            1309            1716     54.8145E-03     58.0613E-03
            1293            1716     54.8145E-03     58.0613E-03
            1292            1716     54.8145E-03     58.0613E-03
            1308            1716     54.8145E-03     58.0613E-03
            1309            1717     47.0297E-03     50.3074E-03
            1310            1717     47.0297E-03     50.3074E-03
            1294            1717     47.0297E-03     50.3074E-03
            1293            1717     47.0297E-03     50.3074E-03
            1295            1718     39.7118E-03     42.9048E-03
            1294            1718     39.7118E-03     42.9048E-03
            1310            1718     39.7118E-03     42.9048E-03
            1311            1718     39.7118E-03     42.9048E-03
            1312            1719     33.0780E-03     36.3625E-03
            1311            1719     33.0780E-03     36.3625E-03
            1295            1719     33.0780E-03     36.3625E-03
            1296            1719     33.0780E-03     36.3625E-03
            1312            1720     27.2509E-03     32.4227E-03
            1296            1720     27.2509E-03     32.4227E-03
            1313            1720     27.2509E-03     32.4227E-03
            1297            1720     27.2509E-03     32.4227E-03
            1314            1721     146.806E-03     143.471E-03
            1315            1721     146.806E-03     143.471E-03
            1299            1721     146.806E-03     143.471E-03
            1298            1721     146.806E-03     143.471E-03
            1316            1722     148.756E-03     145.641E-03
            1315            1722     148.756E-03     145.641E-03
            1300            1722     148.756E-03     145.641E-03
            1299            1722     148.756E-03     145.641E-03
            1317            1723     145.565E-03     142.302E-03
            1300            1723     145.565E-03     142.302E-03
            1301            1723     145.565E-03     142.302E-03
            1316            1723     145.565E-03     142.302E-03
            1317            1724     138.736E-03     135.885E-03
            1318            1724     138.736E-03     135.885E-03
            1301            1724     138.736E-03     135.885E-03
            1302            1724     138.736E-03     135.885E-03
            1318            1725     130.349E-03     127.802E-03
            1302            1725     130.349E-03     127.802E-03
            1303            1725     130.349E-03     127.802E-03
            1319            1725     130.349E-03     127.802E-03
            1320            1726     121.065E-03     118.725E-03
            1304            1726     121.065E-03     118.725E-03
            1303            1726     121.065E-03     118.725E-03
            1319            1726     121.065E-03     118.725E-03
            1304            1727     111.379E-03     109.240E-03
            1320            1727     111.379E-03     109.240E-03
            1321            1727     111.379E-03     109.240E-03
            1305            1727     111.379E-03     109.240E-03
            1306            1728     101.590E-03     99.5261E-03
            1321            1728     101.590E-03     99.5261E-03
            1322            1728     101.590E-03     99.5261E-03
            1305            1728     101.590E-03     99.5261E-03
            1307            1729     91.7522E-03     89.7854E-03
            1323            1729     91.7522E-03     89.7854E-03
            1306            1729     91.7522E-03     89.7854E-03
            1322            1729     91.7522E-03     89.7854E-03
            1308            1730     82.0351E-03     80.1202E-03
            1323            1730     82.0351E-03     80.1202E-03
            1324            1730     82.0351E-03     80.1202E-03
            1307            1730     82.0351E-03     80.1202E-03
            1324            1731     72.4836E-03     70.6562E-03
            1325            1731     72.4836E-03     70.6562E-03
            1308            1731     72.4836E-03     70.6562E-03
            1309            1731     72.4836E-03     70.6562E-03
            1325            1732     63.2999E-03     61.5861E-03
            1326            1732     63.2999E-03     61.5861E-03
            1310            1732     63.2999E-03     61.5861E-03
            1309            1732     63.2999E-03     61.5861E-03
            1327            1733     54.5905E-03     53.2160E-03
            1310            1733     54.5905E-03     53.2160E-03
            1326            1733     54.5905E-03     53.2160E-03
            1311            1733     54.5905E-03     53.2160E-03
            1312            1734     46.5868E-03     46.5677E-03
            1327            1734     46.5868E-03     46.5677E-03
            1328            1734     46.5868E-03     46.5677E-03
            1311            1734     46.5868E-03     46.5677E-03
            1312            1735     39.7821E-03     43.4590E-03
            1313            1735     39.7821E-03     43.4590E-03
            1328            1735     39.7821E-03     43.4590E-03
            1329            1735     39.7821E-03     43.4590E-03
            1315            1736     160.435E-03     162.715E-03
            1331            1736     160.435E-03     162.715E-03
            1314            1736     160.435E-03     162.715E-03
            1330            1736     160.435E-03     162.715E-03
            1331            1737     156.990E-03     158.996E-03
            1316            1737     156.990E-03     158.996E-03
            1332            1737     156.990E-03     158.996E-03
            1315            1737     156.990E-03     158.996E-03
            1332            1738     151.677E-03     152.821E-03
            1316            1738     151.677E-03     152.821E-03
            1317            1738     151.677E-03     152.821E-03
            1333            1738     151.677E-03     152.821E-03
            1317            1739     143.128E-03     143.563E-03
            1334            1739     143.128E-03     143.563E-03
            1333            1739     143.128E-03     143.563E-03
            1318            1739     143.128E-03     143.563E-03
            1319            1740     132.998E-03     133.136E-03
            1335            1740     132.998E-03     133.136E-03
            1318            1740     132.998E-03     133.136E-03
            1334            1740     132.998E-03     133.136E-03
            1320            1741     122.294E-03     122.387E-03
            1335            1741     122.294E-03     122.387E-03
            1336            1741     122.294E-03     122.387E-03
            1319            1741     122.294E-03     122.387E-03
            1321            1742     111.580E-03     111.603E-03
            1336            1742     111.580E-03     111.603E-03
            1337            1742     111.580E-03     111.603E-03
            1320            1742     111.580E-03     111.603E-03
            1322            1743     100.875E-03     100.902E-03
            1338            1743     100.875E-03     100.902E-03
            1321            1743     100.875E-03     100.902E-03
            1337            1743     100.875E-03     100.902E-03
            1323            1744     90.3213E-03     90.3257E-03
            1339            1744     90.3213E-03     90.3257E-03
            1338            1744     90.3213E-03     90.3257E-03
            1322            1744     90.3213E-03     90.3257E-03
            1323            1745     79.9058E-03     79.9027E-03
            1339            1745     79.9058E-03     79.9027E-03
            1324            1745     79.9058E-03     79.9027E-03
            1340            1745     79.9058E-03     79.9027E-03
            1340            1746     69.6876E-03     69.7149E-03
            1324            1746     69.6876E-03     69.7149E-03
            1325            1746     69.6876E-03     69.7149E-03
            1341            1746     69.6876E-03     69.7149E-03
            1325            1747     59.7117E-03     59.9048E-03
            1326            1747     59.7117E-03     59.9048E-03
            1342            1747     59.7117E-03     59.9048E-03
            1341            1747     59.7117E-03     59.9048E-03
            1342            1748     49.9943E-03     50.7969E-03
            1326            1748     49.9943E-03     50.7969E-03
            1343            1748     49.9943E-03     50.7969E-03
            1327            1748     49.9943E-03     50.7969E-03
            1327            1749     40.7705E-03     43.4252E-03
            1344            1749     40.7705E-03     43.4252E-03
            1328            1749     40.7705E-03     43.4252E-03
            1343            1749     40.7705E-03     43.4252E-03
            1345            1750     34.3216E-03     37.3658E-03
            1328            1750     34.3216E-03     37.3658E-03
            1329            1750     34.3216E-03     37.3658E-03
            1344            1750     34.3216E-03     37.3658E-03
            1330            1751     174.350E-03     177.498E-03
            1331            1751     174.350E-03     177.498E-03
            1346            1751     174.350E-03     177.498E-03
            1347            1751     174.350E-03     177.498E-03
            1348            1752     164.853E-03     169.545E-03
            1347            1752     164.853E-03     169.545E-03
            1331            1752     164.853E-03     169.545E-03
            1332            1752     164.853E-03     169.545E-03
            1348            1753     155.813E-03     159.749E-03
            1333            1753     155.813E-03     159.749E-03
            1332            1753     155.813E-03     159.749E-03
            1349            1753     155.813E-03     159.749E-03
            1333            1754     145.053E-03     148.241E-03
            1349            1754     145.053E-03     148.241E-03
            1334            1754     145.053E-03     148.241E-03
            1350            1754     145.053E-03     148.241E-03
            1335            1755     133.515E-03     136.303E-03
            1351            1755     133.515E-03     136.303E-03
            1334            1755     133.515E-03     136.303E-03
            1350            1755     133.515E-03     136.303E-03
            1352            1756     122.168E-03     124.614E-03
            1335            1756     122.168E-03     124.614E-03
            1351            1756     122.168E-03     124.614E-03
            1336            1756     122.168E-03     124.614E-03
            1337            1757     110.830E-03     113.110E-03
            1353            1757     110.830E-03     113.110E-03
            1352            1757     110.830E-03     113.110E-03
            1336            1757     110.830E-03     113.110E-03
            1353            1758     99.6722E-03     101.847E-03
            1337            1758     99.6722E-03     101.847E-03
            1354            1758     99.6722E-03     101.847E-03
            1338            1758     99.6722E-03     101.847E-03
            1354            1759     88.6454E-03     90.7553E-03
            1339            1759     88.6454E-03     90.7553E-03
            1338            1759     88.6454E-03     90.7553E-03
            1355            1759     88.6454E-03     90.7553E-03
            1355            1760     77.7659E-03     79.8415E-03
            1356            1760     77.7659E-03     79.8415E-03
            1339            1760     77.7659E-03     79.8415E-03
            1340            1760     77.7659E-03     79.8415E-03
            1340            1761     67.0289E-03     69.1308E-03
            1356            1761     67.0289E-03     69.1308E-03
            1357            1761     67.0289E-03     69.1308E-03
            1341            1761     67.0289E-03     69.1308E-03
            1342            1762     56.4671E-03     58.7243E-03
            1358            1762     56.4671E-03     58.7243E-03
            1341            1762     56.4671E-03     58.7243E-03
            1357            1762     56.4671E-03     58.7243E-03
            1358            1763     46.0819E-03     49.0173E-03
            1359            1763     46.0819E-03     49.0173E-03
            1343            1763     46.0819E-03     49.0173E-03
            1342            1763     46.0819E-03     49.0173E-03
            1360            1764     36.5676E-03     39.9118E-03
            1359            1764     36.5676E-03     39.9118E-03
            1343            1764     36.5676E-03     39.9118E-03
            1344            1764     36.5676E-03     39.9118E-03
            1361            1765     29.3207E-03     31.1973E-03
            1345            1765     29.3207E-03     31.1973E-03
            1360            1765     29.3207E-03     31.1973E-03
            1344            1765     29.3207E-03     31.1973E-03
            1346            1766     185.967E-03     190.526E-03
            1347            1766     185.967E-03     190.526E-03
            1362            1766     185.967E-03     190.526E-03
            1363            1766     185.967E-03     190.526E-03
            1348            1767     172.016E-03     176.940E-03
            1363            1767     172.016E-03     176.940E-03
            1364            1767     172.016E-03     176.940E-03
            1347            1767     172.016E-03     176.940E-03
            1348            1768     157.425E-03     162.873E-03
            1349            1768     157.425E-03     162.873E-03
            1364            1768     157.425E-03     162.873E-03
            1365            1768     157.425E-03     162.873E-03
            1349            1769     143.987E-03     149.428E-03
            1365            1769     143.987E-03     149.428E-03
            1350            1769     143.987E-03     149.428E-03
            1366            1769     143.987E-03     149.428E-03
            1351            1770     132.058E-03     137.038E-03
            1367            1770     132.058E-03     137.038E-03
            1366            1770     132.058E-03     137.038E-03
            1350            1770     132.058E-03     137.038E-03
            1352            1771     120.402E-03     125.048E-03
            1367            1771     120.402E-03     125.048E-03
            1368            1771     120.402E-03     125.048E-03
            1351            1771     120.402E-03     125.048E-03
            1352            1772     109.002E-03     113.472E-03
            1369            1772     109.002E-03     113.472E-03
            1353            1772     109.002E-03     113.472E-03
            1368            1772     109.002E-03     113.472E-03
            1353            1773     97.7309E-03     102.081E-03
            1354            1773     97.7309E-03     102.081E-03
            1369            1773     97.7309E-03     102.081E-03
            1370            1773     97.7309E-03     102.081E-03
            1370            1774     86.5500E-03     90.8433E-03
            1354            1774     86.5500E-03     90.8433E-03
            1371            1774     86.5500E-03     90.8433E-03
            1355            1774     86.5500E-03     90.8433E-03
            1355            1775     75.4612E-03     79.7202E-03
            1356            1775     75.4612E-03     79.7202E-03
            1371            1775     75.4612E-03     79.7202E-03
            1372            1775     75.4612E-03     79.7202E-03
            1356            1776     64.4606E-03     68.7212E-03
            1357            1776     64.4606E-03     68.7212E-03
            1372            1776     64.4606E-03     68.7212E-03
            1373            1776     64.4606E-03     68.7212E-03
            1357            1777     53.5407E-03     57.9318E-03
            1358            1777     53.5407E-03     57.9318E-03
            1373            1777     53.5407E-03     57.9318E-03
            1374            1777     53.5407E-03     57.9318E-03
            1375            1778     42.9773E-03     47.5234E-03
            1358            1778     42.9773E-03     47.5234E-03
            1359            1778     42.9773E-03     47.5234E-03
            1374            1778     42.9773E-03     47.5234E-03
            1375            1779     33.0957E-03     37.2918E-03
            1360            1779     33.0957E-03     37.2918E-03
            1359            1779     33.0957E-03     37.2918E-03
            1376            1779     33.0957E-03     37.2918E-03
            1376            1780     24.6832E-03     27.9874E-03
            1377            1780     24.6832E-03     27.9874E-03
            1360            1780     24.6832E-03     27.9874E-03
            1361            1780     24.6832E-03     27.9874E-03
            1379            1781     197.110E-03     199.648E-03
            1362            1781     197.110E-03     199.648E-03
            1378            1781     197.110E-03     199.648E-03
            1363            1781     197.110E-03     199.648E-03
            1363            1782     174.447E-03     179.879E-03
            1380            1782     174.447E-03     179.879E-03
            1364            1782     174.447E-03     179.879E-03
            1379            1782     174.447E-03     179.879E-03
            1381            1783     154.844E-03     161.806E-03
            1380            1783     154.844E-03     161.806E-03
            1364            1783     154.844E-03     161.806E-03
            1365            1783     154.844E-03     161.806E-03
            1382            1784     140.987E-03     147.952E-03
            1381            1784     140.987E-03     147.952E-03
            1365            1784     140.987E-03     147.952E-03
            1366            1784     140.987E-03     147.952E-03
            1383            1785     128.881E-03     135.627E-03
            1366            1785     128.881E-03     135.627E-03
            1367            1785     128.881E-03     135.627E-03
            1382            1785     128.881E-03     135.627E-03
            1383            1786     117.424E-03     124.082E-03
            1384            1786     117.424E-03     124.082E-03
            1367            1786     117.424E-03     124.082E-03
            1368            1786     117.424E-03     124.082E-03
            1368            1787     106.266E-03     112.827E-03
            1384            1787     106.266E-03     112.827E-03
            1369            1787     106.266E-03     112.827E-03
            1385            1787     106.266E-03     112.827E-03
            1369            1788     95.1497E-03     101.697E-03
            1386            1788     95.1497E-03     101.697E-03
            1385            1788     95.1497E-03     101.697E-03
            1370            1788     95.1497E-03     101.697E-03
            1370            1789     84.0820E-03     90.6100E-03
            1387            1789     84.0820E-03     90.6100E-03
            1371            1789     84.0820E-03     90.6100E-03
            1386            1789     84.0820E-03     90.6100E-03
            1371            1790     73.0147E-03     79.5285E-03
            1387            1790     73.0147E-03     79.5285E-03
            1372            1790     73.0147E-03     79.5285E-03
            1388            1790     73.0147E-03     79.5285E-03
            1373            1791     61.9843E-03     68.4836E-03
            1372            1791     61.9843E-03     68.4836E-03
            1389            1791     61.9843E-03     68.4836E-03
            1388            1791     61.9843E-03     68.4836E-03
            1390            1792     51.0394E-03     57.5231E-03
            1374            1792     51.0394E-03     57.5231E-03
            1389            1792     51.0394E-03     57.5231E-03
            1373            1792     51.0394E-03     57.5231E-03
            1391            1793     40.3544E-03     46.5696E-03
            1375            1793     40.3544E-03     46.5696E-03
            1390            1793     40.3544E-03     46.5696E-03
            1374            1793     40.3544E-03     46.5696E-03
            1375            1794     30.3701E-03     36.2675E-03
            1391            1794     30.3701E-03     36.2675E-03
            1376            1794     30.3701E-03     36.2675E-03
            1392            1794     30.3701E-03     36.2675E-03
            1376            1795     21.3756E-03     26.3009E-03
            1377            1795     21.3756E-03     26.3009E-03
            1393            1795     21.3756E-03     26.3009E-03
            1392            1795     21.3756E-03     26.3009E-03
            1394            1796     199.859E-03     205.683E-03
            1378            1796     199.859E-03     205.683E-03
            1395            1796     199.859E-03     205.683E-03
            1379            1796     199.859E-03     205.683E-03
            1395            1797     168.985E-03     176.574E-03
            1379            1797     168.985E-03     176.574E-03
            1396            1797     168.985E-03     176.574E-03
            1380            1797     168.985E-03     176.574E-03
            1380            1798     150.296E-03     157.981E-03
            1381            1798     150.296E-03     157.981E-03
            1396            1798     150.296E-03     157.981E-03
            1397            1798     150.296E-03     157.981E-03
            1382            1799     136.778E-03     144.767E-03
            1381            1799     136.778E-03     144.767E-03
            1397            1799     136.778E-03     144.767E-03
            1398            1799     136.778E-03     144.767E-03
            1398            1800     124.826E-03     133.150E-03
            1383            1800     124.826E-03     133.150E-03
            1399            1800     124.826E-03     133.150E-03
            1382            1800     124.826E-03     133.150E-03
            1399            1801     113.825E-03     122.347E-03
            1400            1801     113.825E-03     122.347E-03
            1383            1801     113.825E-03     122.347E-03
            1384            1801     113.825E-03     122.347E-03
            1384            1802     102.989E-03     111.667E-03
            1401            1802     102.989E-03     111.667E-03
            1400            1802     102.989E-03     111.667E-03
            1385            1802     102.989E-03     111.667E-03
            1386            1803     92.2452E-03     101.008E-03
            1401            1803     92.2452E-03     101.008E-03
            1402            1803     92.2452E-03     101.008E-03
            1385            1803     92.2452E-03     101.008E-03
            1403            1804     81.4403E-03     90.2565E-03
            1402            1804     81.4403E-03     90.2565E-03
            1386            1804     81.4403E-03     90.2565E-03
            1387            1804     81.4403E-03     90.2565E-03
            1388            1805     70.6047E-03     79.4448E-03
            1387            1805     70.6047E-03     79.4448E-03
            1404            1805     70.6047E-03     79.4448E-03
            1403            1805     70.6047E-03     79.4448E-03
            1404            1806     59.7439E-03     68.5624E-03
            1388            1806     59.7439E-03     68.5624E-03
            1405            1806     59.7439E-03     68.5624E-03
            1389            1806     59.7439E-03     68.5624E-03
            1406            1807     49.0039E-03     57.6364E-03
            1390            1807     49.0039E-03     57.6364E-03
            1405            1807     49.0039E-03     57.6364E-03
            1389            1807     49.0039E-03     57.6364E-03
            1407            1808     38.4125E-03     46.7430E-03
            1406            1808     38.4125E-03     46.7430E-03
            1391            1808     38.4125E-03     46.7430E-03
            1390            1808     38.4125E-03     46.7430E-03
            1407            1809     28.6146E-03     36.1469E-03
            1392            1809     28.6146E-03     36.1469E-03
            1391            1809     28.6146E-03     36.1469E-03
            1408            1809     28.6146E-03     36.1469E-03
            1409            1810     20.1624E-03     26.6378E-03
            1408            1810     20.1624E-03     26.6378E-03
            1392            1810     20.1624E-03     26.6378E-03
            1393            1810     20.1624E-03     26.6378E-03
            1411            1811     201.993E-03     205.260E-03
            1394            1811     201.993E-03     205.260E-03
            1410            1811     201.993E-03     205.260E-03
            1395            1811     201.993E-03     205.260E-03
            1411            1812     186.184E-03     186.817E-03
            1412            1812     186.184E-03     186.817E-03
            1396            1812     186.184E-03     186.817E-03
            1395            1812     186.184E-03     186.817E-03
            1396            1813     174.281E-03     175.572E-03
            1397            1813     174.281E-03     175.572E-03
            1412            1813     174.281E-03     175.572E-03
            1413            1813     174.281E-03     175.572E-03
            1398            1814     162.522E-03     164.852E-03
            1413            1814     162.522E-03     164.852E-03
            1414            1814     162.522E-03     164.852E-03
            1397            1814     162.522E-03     164.852E-03
            1414            1815     151.036E-03     154.030E-03
            1415            1815     151.036E-03     154.030E-03
            1399            1815     151.036E-03     154.030E-03
            1398            1815     151.036E-03     154.030E-03
            1399            1816     139.309E-03     142.891E-03
            1415            1816     139.309E-03     142.891E-03
            1416            1816     139.309E-03     142.891E-03
            1400            1816     139.309E-03     142.891E-03
            1416            1817     127.517E-03     131.334E-03
            1417            1817     127.517E-03     131.334E-03
            1401            1817     127.517E-03     131.334E-03
            1400            1817     127.517E-03     131.334E-03
            1401            1818     115.517E-03     119.542E-03
            1417            1818     115.517E-03     119.542E-03
            1418            1818     115.517E-03     119.542E-03
            1402            1818     115.517E-03     119.542E-03
            1403            1819     103.464E-03     107.580E-03
            1418            1819     103.464E-03     107.580E-03
            1419            1819     103.464E-03     107.580E-03
            1402            1819     103.464E-03     107.580E-03
            1420            1820     91.3636E-03     95.5552E-03
            1403            1820     91.3636E-03     95.5552E-03
            1419            1820     91.3636E-03     95.5552E-03
            1404            1820     91.3636E-03     95.5552E-03
            1405            1821     79.3722E-03     83.5691E-03
            1404            1821     79.3722E-03     83.5691E-03
            1420            1821     79.3722E-03     83.5691E-03
            1421            1821     79.3722E-03     83.5691E-03
            1422            1822     67.6511E-03     71.7620E-03
            1406            1822     67.6511E-03     71.7620E-03
            1405            1822     67.6511E-03     71.7620E-03
            1421            1822     67.6511E-03     71.7620E-03
            1406            1823     56.5250E-03     60.3164E-03
            1422            1823     56.5250E-03     60.3164E-03
            1407            1823     56.5250E-03     60.3164E-03
            1423            1823     56.5250E-03     60.3164E-03
            1424            1824     46.3974E-03     49.9028E-03
            1408            1824     46.3974E-03     49.9028E-03
            1423            1824     46.3974E-03     49.9028E-03
            1407            1824     46.3974E-03     49.9028E-03
            1408            1825     37.6603E-03     42.3648E-03
            1409            1825     37.6603E-03     42.3648E-03
            1425            1825     37.6603E-03     42.3648E-03
            1424            1825     37.6603E-03     42.3648E-03
            1410            1826     216.261E-03     213.299E-03
            1411            1826     216.261E-03     213.299E-03
            1427            1826     216.261E-03     213.299E-03
            1426            1826     216.261E-03     213.299E-03
            1412            1827     213.149E-03     210.870E-03
            1427            1827     213.149E-03     210.870E-03
            1428            1827     213.149E-03     210.870E-03
            1411            1827     213.149E-03     210.870E-03
            1412            1828     205.441E-03     203.028E-03
            1428            1828     205.441E-03     203.028E-03
            1429            1828     205.441E-03     203.028E-03
            1413            1828     205.441E-03     203.028E-03
            1429            1829     194.358E-03     192.491E-03
            1414            1829     194.358E-03     192.491E-03
            1430            1829     194.358E-03     192.491E-03
            1413            1829     194.358E-03     192.491E-03
            1415            1830     181.731E-03     180.279E-03
            1431            1830     181.731E-03     180.279E-03
            1430            1830     181.731E-03     180.279E-03
            1414            1830     181.731E-03     180.279E-03
            1415            1831     168.228E-03     167.048E-03
            1432            1831     168.228E-03     167.048E-03
            1431            1831     168.228E-03     167.048E-03
            1416            1831     168.228E-03     167.048E-03
            1417            1832     154.293E-03     153.365E-03
            1416            1832     154.293E-03     153.365E-03
            1432            1832     154.293E-03     153.365E-03
            1433            1832     154.293E-03     153.365E-03
            1433            1833     140.257E-03     139.411E-03
            1434            1833     140.257E-03     139.411E-03
            1417            1833     140.257E-03     139.411E-03
            1418            1833     140.257E-03     139.411E-03
            1434            1834     126.149E-03     125.398E-03
            1435            1834     126.149E-03     125.398E-03
            1419            1834     126.149E-03     125.398E-03
            1418            1834     126.149E-03     125.398E-03
            1419            1835     112.171E-03     111.444E-03
            1435            1835     112.171E-03     111.444E-03
            1436            1835     112.171E-03     111.444E-03
            1420            1835     112.171E-03     111.444E-03
            1436            1836     98.3745E-03     97.6894E-03
            1437            1836     98.3745E-03     97.6894E-03
            1421            1836     98.3745E-03     97.6894E-03
            1420            1836     98.3745E-03     97.6894E-03
            1437            1837     85.0323E-03     84.3580E-03
            1421            1837     85.0323E-03     84.3580E-03
            1422            1837     85.0323E-03     84.3580E-03
            1438            1837     85.0323E-03     84.3580E-03
            1439            1838     72.2803E-03     71.8089E-03
            1422            1838     72.2803E-03     71.8089E-03
            1438            1838     72.2803E-03     71.8089E-03
            1423            1838     72.2803E-03     71.8089E-03
            1423            1839     60.5651E-03     61.3383E-03
            1439            1839     60.5651E-03     61.3383E-03
            1440            1839     60.5651E-03     61.3383E-03
            1424            1839     60.5651E-03     61.3383E-03
            1440            1840     50.2240E-03     55.2745E-03
            1425            1840     50.2240E-03     55.2745E-03
            1441            1840     50.2240E-03     55.2745E-03
            1424            1840     50.2240E-03     55.2745E-03
            1443            1841     232.078E-03     235.468E-03
            1427            1841     232.078E-03     235.468E-03
            1426            1841     232.078E-03     235.468E-03
            1442            1841     232.078E-03     235.468E-03
            1443            1842     224.115E-03     227.629E-03
            1428            1842     224.115E-03     227.629E-03
            1427            1842     224.115E-03     227.629E-03
            1444            1842     224.115E-03     227.629E-03
            1445            1843     213.605E-03     216.369E-03
            1428            1843     213.605E-03     216.369E-03
            1429            1843     213.605E-03     216.369E-03
            1444            1843     213.605E-03     216.369E-03
            1429            1844     200.353E-03     202.253E-03
            1446            1844     200.353E-03     202.253E-03
            1445            1844     200.353E-03     202.253E-03
            1430            1844     200.353E-03     202.253E-03
            1447            1845     185.593E-03     187.093E-03
            1430            1845     185.593E-03     187.093E-03
            1431            1845     185.593E-03     187.093E-03
            1446            1845     185.593E-03     187.093E-03
            1448            1846     170.322E-03     171.744E-03
            1431            1846     170.322E-03     171.744E-03
            1432            1846     170.322E-03     171.744E-03
            1447            1846     170.322E-03     171.744E-03
            1449            1847     155.100E-03     156.409E-03
            1448            1847     155.100E-03     156.409E-03
            1433            1847     155.100E-03     156.409E-03
            1432            1847     155.100E-03     156.409E-03
            1450            1848     139.892E-03     141.194E-03
            1434            1848     139.892E-03     141.194E-03
            1449            1848     139.892E-03     141.194E-03
            1433            1848     139.892E-03     141.194E-03
            1434            1849     124.858E-03     126.118E-03
            1451            1849     124.858E-03     126.118E-03
            1435            1849     124.858E-03     126.118E-03
            1450            1849     124.858E-03     126.118E-03
            1436            1850     109.970E-03     111.202E-03
            1451            1850     109.970E-03     111.202E-03
            1435            1850     109.970E-03     111.202E-03
            1452            1850     109.970E-03     111.202E-03
            1452            1851     95.2940E-03     96.5365E-03
            1437            1851     95.2940E-03     96.5365E-03
            1436            1851     95.2940E-03     96.5365E-03
            1453            1851     95.2940E-03     96.5365E-03
            1454            1852     80.8640E-03     82.2880E-03
            1453            1852     80.8640E-03     82.2880E-03
            1438            1852     80.8640E-03     82.2880E-03
            1437            1852     80.8640E-03     82.2880E-03
            1454            1853     66.7234E-03     68.7891E-03
            1439            1853     66.7234E-03     68.7891E-03
            1455            1853     66.7234E-03     68.7891E-03
            1438            1853     66.7234E-03     68.7891E-03
            1455            1854     52.9821E-03     57.3889E-03
            1439            1854     52.9821E-03     57.3889E-03
            1440            1854     52.9821E-03     57.3889E-03
            1456            1854     52.9821E-03     57.3889E-03
            1440            1855     42.1873E-03     47.5424E-03
            1456            1855     42.1873E-03     47.5424E-03
            1441            1855     42.1873E-03     47.5424E-03
            1457            1855     42.1873E-03     47.5424E-03
            1442            1856     246.728E-03     251.527E-03
            1458            1856     246.728E-03     251.527E-03
            1443            1856     246.728E-03     251.527E-03
            1459            1856     246.728E-03     251.527E-03
            1459            1857     233.165E-03     239.804E-03
            1460            1857     233.165E-03     239.804E-03
            1444            1857     233.165E-03     239.804E-03
            1443            1857     233.165E-03     239.804E-03
            1445            1858     219.080E-03     224.896E-03
            1444            1858     219.080E-03     224.896E-03
            1460            1858     219.080E-03     224.896E-03
            1461            1858     219.080E-03     224.896E-03
            1446            1859     203.164E-03     208.104E-03
            1461            1859     203.164E-03     208.104E-03
            1462            1859     203.164E-03     208.104E-03
            1445            1859     203.164E-03     208.104E-03
            1462            1860     186.757E-03     191.125E-03
            1463            1860     186.757E-03     191.125E-03
            1447            1860     186.757E-03     191.125E-03
            1446            1860     186.757E-03     191.125E-03
            1447            1861     170.679E-03     174.568E-03
            1464            1861     170.679E-03     174.568E-03
            1448            1861     170.679E-03     174.568E-03
            1463            1861     170.679E-03     174.568E-03
            1448            1862     154.672E-03     158.325E-03
            1464            1862     154.672E-03     158.325E-03
            1449            1862     154.672E-03     158.325E-03
            1465            1862     154.672E-03     158.325E-03
            1466            1863     138.892E-03     142.394E-03
            1450            1863     138.892E-03     142.394E-03
            1465            1863     138.892E-03     142.394E-03
            1449            1863     138.892E-03     142.394E-03
            1466            1864     123.263E-03     126.677E-03
            1467            1864     123.263E-03     126.677E-03
            1451            1864     123.263E-03     126.677E-03
            1450            1864     123.263E-03     126.677E-03
            1452            1865     107.796E-03     111.163E-03
            1467            1865     107.796E-03     111.163E-03
            1468            1865     107.796E-03     111.163E-03
            1451            1865     107.796E-03     111.163E-03
            1468            1866     92.4679E-03     95.8736E-03
            1469            1866     92.4679E-03     95.8736E-03
            1452            1866     92.4679E-03     95.8736E-03
            1453            1866     92.4679E-03     95.8736E-03
            1453            1867     77.2840E-03     80.9175E-03
            1454            1867     77.2840E-03     80.9175E-03
            1469            1867     77.2840E-03     80.9175E-03
            1470            1867     77.2840E-03     80.9175E-03
            1454            1868     62.1428E-03     66.7788E-03
            1455            1868     62.1428E-03     66.7788E-03
            1471            1868     62.1428E-03     66.7788E-03
            1470            1868     62.1428E-03     66.7788E-03
            1471            1869     47.6754E-03     53.2201E-03
            1472            1869     47.6754E-03     53.2201E-03
            1455            1869     47.6754E-03     53.2201E-03
            1456            1869     47.6754E-03     53.2201E-03
            1473            1870     35.4951E-03     39.6981E-03
            1472            1870     35.4951E-03     39.6981E-03
            1457            1870     35.4951E-03     39.6981E-03
            1456            1870     35.4951E-03     39.6981E-03
            1459            1871     258.512E-03     264.737E-03
            1474            1871     258.512E-03     264.737E-03
            1475            1871     258.512E-03     264.737E-03
            1458            1871     258.512E-03     264.737E-03
            1476            1872     240.412E-03     247.286E-03
            1475            1872     240.412E-03     247.286E-03
            1460            1872     240.412E-03     247.286E-03
            1459            1872     240.412E-03     247.286E-03
            1461            1873     220.715E-03     228.064E-03
            1477            1873     220.715E-03     228.064E-03
            1476            1873     220.715E-03     228.064E-03
            1460            1873     220.715E-03     228.064E-03
            1461            1874     202.086E-03     209.311E-03
            1462            1874     202.086E-03     209.311E-03
            1478            1874     202.086E-03     209.311E-03
            1477            1874     202.086E-03     209.311E-03
            1463            1875     185.278E-03     191.872E-03
            1478            1875     185.278E-03     191.872E-03
            1479            1875     185.278E-03     191.872E-03
            1462            1875     185.278E-03     191.872E-03
            1464            1876     168.883E-03     175.009E-03
            1479            1876     168.883E-03     175.009E-03
            1463            1876     168.883E-03     175.009E-03
            1480            1876     168.883E-03     175.009E-03
            1465            1877     152.808E-03     158.691E-03
            1481            1877     152.808E-03     158.691E-03
            1480            1877     152.808E-03     158.691E-03
            1464            1877     152.808E-03     158.691E-03
            1465            1878     136.909E-03     142.629E-03
            1482            1878     136.909E-03     142.629E-03
            1481            1878     136.909E-03     142.629E-03
            1466            1878     136.909E-03     142.629E-03
            1482            1879     121.117E-03     126.760E-03
            1483            1879     121.117E-03     126.760E-03
            1466            1879     121.117E-03     126.760E-03
            1467            1879     121.117E-03     126.760E-03
            1468            1880     105.428E-03     111.031E-03
            1483            1880     105.428E-03     111.031E-03
            1484            1880     105.428E-03     111.031E-03
            1467            1880     105.428E-03     111.031E-03
            1484            1881     89.8166E-03     95.4427E-03
            1485            1881     89.8166E-03     95.4427E-03
            1468            1881     89.8166E-03     95.4427E-03
            1469            1881     89.8166E-03     95.4427E-03
            1470            1882     74.2407E-03     80.0850E-03
            1485            1882     74.2407E-03     80.0850E-03
            1486            1882     74.2407E-03     80.0850E-03
            1469            1882     74.2407E-03     80.0850E-03
            1486            1883     58.8717E-03     65.1970E-03
            1487            1883     58.8717E-03     65.1970E-03
            1470            1883     58.8717E-03     65.1970E-03
            1471            1883     58.8717E-03     65.1970E-03
            1487            1884     43.8582E-03     50.3965E-03
            1471            1884     43.8582E-03     50.3965E-03
            1488            1884     43.8582E-03     50.3965E-03
            1472            1884     43.8582E-03     50.3965E-03
            1488            1885     29.9539E-03     36.0937E-03
            1473            1885     29.9539E-03     36.0937E-03
            1489            1885     29.9539E-03     36.0937E-03
            1472            1885     29.9539E-03     36.0937E-03
            1474            1886     269.289E-03     272.916E-03
            1475            1886     269.289E-03     272.916E-03
            1490            1886     269.289E-03     272.916E-03
            1491            1886     269.289E-03     272.916E-03
            1475            1887     241.779E-03     248.757E-03
            1492            1887     241.779E-03     248.757E-03
            1476            1887     241.779E-03     248.757E-03
            1491            1887     241.779E-03     248.757E-03
            1493            1888     216.823E-03     225.478E-03
            1477            1888     216.823E-03     225.478E-03
            1476            1888     216.823E-03     225.478E-03
            1492            1888     216.823E-03     225.478E-03
            1494            1889     198.187E-03     206.709E-03
            1478            1889     198.187E-03     206.709E-03
            1493            1889     198.187E-03     206.709E-03
            1477            1889     198.187E-03     206.709E-03
            1479            1890     181.414E-03     189.623E-03
            1494            1890     181.414E-03     189.623E-03
            1478            1890     181.414E-03     189.623E-03
            1495            1890     181.414E-03     189.623E-03
            1495            1891     165.368E-03     173.462E-03
            1479            1891     165.368E-03     173.462E-03
            1496            1891     165.368E-03     173.462E-03
            1480            1891     165.368E-03     173.462E-03
            1496            1892     149.682E-03     157.645E-03
            1481            1892     149.682E-03     157.645E-03
            1480            1892     149.682E-03     157.645E-03
            1497            1892     149.682E-03     157.645E-03
            1482            1893     134.041E-03     141.990E-03
            1497            1893     134.041E-03     141.990E-03
            1481            1893     134.041E-03     141.990E-03
            1498            1893     134.041E-03     141.990E-03
            1482            1894     118.467E-03     126.389E-03
            1499            1894     118.467E-03     126.389E-03
            1483            1894     118.467E-03     126.389E-03
            1498            1894     118.467E-03     126.389E-03
            1484            1895     102.889E-03     110.795E-03
            1500            1895     102.889E-03     110.795E-03
            1483            1895     102.889E-03     110.795E-03
            1499            1895     102.889E-03     110.795E-03
            1500            1896     87.3461E-03     95.2407E-03
            1501            1896     87.3461E-03     95.2407E-03
            1485            1896     87.3461E-03     95.2407E-03
            1484            1896     87.3461E-03     95.2407E-03
            1486            1897     71.8574E-03     79.7868E-03
            1502            1897     71.8574E-03     79.7868E-03
            1485            1897     71.8574E-03     79.7868E-03
            1501            1897     71.8574E-03     79.7868E-03
            1503            1898     56.6016E-03     64.3154E-03
            1487            1898     56.6016E-03     64.3154E-03
            1502            1898     56.6016E-03     64.3154E-03
            1486            1898     56.6016E-03     64.3154E-03
            1488            1899     41.7737E-03     49.6867E-03
            1503            1899     41.7737E-03     49.6867E-03
            1504            1899     41.7737E-03     49.6867E-03
            1487            1899     41.7737E-03     49.6867E-03
            1488            1900     27.0276E-03     35.2756E-03
            1505            1900     27.0276E-03     35.2756E-03
            1489            1900     27.0276E-03     35.2756E-03
            1504            1900     27.0276E-03     35.2756E-03
            1491            1901     270.084E-03     276.416E-03
            1507            1901     270.084E-03     276.416E-03
            1506            1901     270.084E-03     276.416E-03
            1490            1901     270.084E-03     276.416E-03
            1492            1902     233.623E-03     242.166E-03
            1491            1902     233.623E-03     242.166E-03
            1508            1902     233.623E-03     242.166E-03
            1507            1902     233.623E-03     242.166E-03
            1493            1903     210.241E-03     218.906E-03
            1492            1903     210.241E-03     218.906E-03
            1508            1903     210.241E-03     218.906E-03
            1509            1903     210.241E-03     218.906E-03
            1510            1904     192.378E-03     201.494E-03
            1509            1904     192.378E-03     201.494E-03
            1493            1904     192.378E-03     201.494E-03
            1494            1904     192.378E-03     201.494E-03
            1511            1905     176.121E-03     185.699E-03
            1510            1905     176.121E-03     185.699E-03
            1494            1905     176.121E-03     185.699E-03
            1495            1905     176.121E-03     185.699E-03
            1511            1906     160.859E-03     170.715E-03
            1495            1906     160.859E-03     170.715E-03
            1512            1906     160.859E-03     170.715E-03
            1496            1906     160.859E-03     170.715E-03
            1512            1907     145.737E-03     155.814E-03
            1496            1907     145.737E-03     155.814E-03
            1497            1907     145.737E-03     155.814E-03
            1513            1907     145.737E-03     155.814E-03
            1514            1908     130.707E-03     140.893E-03
            1497            1908     130.707E-03     140.893E-03
            1513            1908     130.707E-03     140.893E-03
            1498            1908     130.707E-03     140.893E-03
            1498            1909     115.587E-03     125.844E-03
            1515            1909     115.587E-03     125.844E-03
            1499            1909     115.587E-03     125.844E-03
            1514            1909     115.587E-03     125.844E-03
            1499            1910     100.432E-03     110.710E-03
            1515            1910     100.432E-03     110.710E-03
            1516            1910     100.432E-03     110.710E-03
            1500            1910     100.432E-03     110.710E-03
            1500            1911     85.2434E-03     95.4862E-03
            1516            1911     85.2434E-03     95.4862E-03
            1517            1911     85.2434E-03     95.4862E-03
            1501            1911     85.2434E-03     95.4862E-03
            1517            1912     70.2218E-03     80.2112E-03
            1518            1912     70.2218E-03     80.2112E-03
            1502            1912     70.2218E-03     80.2112E-03
            1501            1912     70.2218E-03     80.2112E-03
            1502            1913     55.3912E-03     64.9717E-03
            1518            1913     55.3912E-03     64.9717E-03
            1503            1913     55.3912E-03     64.9717E-03
            1519            1913     55.3912E-03     64.9717E-03
            1519            1914     41.6123E-03     50.1697E-03
            1520            1914     41.6123E-03     50.1697E-03
            1504            1914     41.6123E-03     50.1697E-03
            1503            1914     41.6123E-03     50.1697E-03
            1521            1915     28.6729E-03     36.7614E-03
            1505            1915     28.6729E-03     36.7614E-03
            1520            1915     28.6729E-03     36.7614E-03
            1504            1915     28.6729E-03     36.7614E-03
            1507            1916     270.224E-03     274.836E-03
            1523            1916     270.224E-03     274.836E-03
            1506            1916     270.224E-03     274.836E-03
            1522            1916     270.224E-03     274.836E-03
            1508            1917     249.470E-03     250.707E-03
            1524            1917     249.470E-03     250.707E-03
            1507            1917     249.470E-03     250.707E-03
            1523            1917     249.470E-03     250.707E-03
            1508            1918     233.439E-03     235.395E-03
            1524            1918     233.439E-03     235.395E-03
            1525            1918     233.439E-03     235.395E-03
            1509            1918     233.439E-03     235.395E-03
            1526            1919     217.193E-03     220.471E-03
            1525            1919     217.193E-03     220.471E-03
            1510            1919     217.193E-03     220.471E-03
            1509            1919     217.193E-03     220.471E-03
            1526            1920     201.463E-03     205.474E-03
            1527            1920     201.463E-03     205.474E-03
            1511            1920     201.463E-03     205.474E-03
            1510            1920     201.463E-03     205.474E-03
            1512            1921     185.394E-03     190.004E-03
            1528            1921     185.394E-03     190.004E-03
            1527            1921     185.394E-03     190.004E-03
            1511            1921     185.394E-03     190.004E-03
            1512            1922     169.326E-03     174.145E-03
            1528            1922     169.326E-03     174.145E-03
            1513            1922     169.326E-03     174.145E-03
            1529            1922     169.326E-03     174.145E-03
            1530            1923     153.040E-03     158.055E-03
            1514            1923     153.040E-03     158.055E-03
            1529            1923     153.040E-03     158.055E-03
            1513            1923     153.040E-03     158.055E-03
            1530            1924     136.680E-03     141.732E-03
            1531            1924     136.680E-03     141.732E-03
            1515            1924     136.680E-03     141.732E-03
            1514            1924     136.680E-03     141.732E-03
            1531            1925     120.235E-03     125.377E-03
            1516            1925     120.235E-03     125.377E-03
            1532            1925     120.235E-03     125.377E-03
            1515            1925     120.235E-03     125.377E-03
            1533            1926     103.903E-03     109.025E-03
            1516            1926     103.903E-03     109.025E-03
            1517            1926     103.903E-03     109.025E-03
            1532            1926     103.903E-03     109.025E-03
            1533            1927     87.8357E-03     92.8546E-03
            1517            1927     87.8357E-03     92.8546E-03
            1534            1927     87.8357E-03     92.8546E-03
            1518            1927     87.8357E-03     92.8546E-03
            1518            1928     72.4840E-03     77.0346E-03
            1519            1928     72.4840E-03     77.0346E-03
            1534            1928     72.4840E-03     77.0346E-03
            1535            1928     72.4840E-03     77.0346E-03
            1535            1929     58.4605E-03     62.3771E-03
            1519            1929     58.4605E-03     62.3771E-03
            1520            1929     58.4605E-03     62.3771E-03
            1536            1929     58.4605E-03     62.3771E-03
            1536            1930     46.4723E-03     50.6998E-03
            1521            1930     46.4723E-03     50.6998E-03
            1520            1930     46.4723E-03     50.6998E-03
            1537            1930     46.4723E-03     50.6998E-03
            1539            1931     286.339E-03     284.561E-03
            1523            1931     286.339E-03     284.561E-03
            1538            1931     286.339E-03     284.561E-03
            1522            1931     286.339E-03     284.561E-03
            1524            1932     278.364E-03     277.090E-03
            1540            1932     278.364E-03     277.090E-03
            1523            1932     278.364E-03     277.090E-03
            1539            1932     278.364E-03     277.090E-03
            1524            1933     265.114E-03     264.196E-03
            1540            1933     265.114E-03     264.196E-03
            1525            1933     265.114E-03     264.196E-03
            1541            1933     265.114E-03     264.196E-03
            1525            1934     249.217E-03     248.533E-03
            1541            1934     249.217E-03     248.533E-03
            1542            1934     249.217E-03     248.533E-03
            1526            1934     249.217E-03     248.533E-03
            1527            1935     231.615E-03     231.274E-03
            1526            1935     231.615E-03     231.274E-03
            1543            1935     231.615E-03     231.274E-03
            1542            1935     231.615E-03     231.274E-03
            1528            1936     213.431E-03     213.373E-03
            1543            1936     213.431E-03     213.373E-03
            1544            1936     213.431E-03     213.373E-03
            1527            1936     213.431E-03     213.373E-03
            1545            1937     195.082E-03     195.071E-03
            1528            1937     195.082E-03     195.071E-03
            1544            1937     195.082E-03     195.071E-03
            1529            1937     195.082E-03     195.071E-03
            1529            1938     176.568E-03     176.639E-03
            1545            1938     176.568E-03     176.639E-03
            1546            1938     176.568E-03     176.639E-03
            1530            1938     176.568E-03     176.639E-03
            1531            1939     158.081E-03     158.141E-03
            1530            1939     158.081E-03     158.141E-03
            1547            1939     158.081E-03     158.141E-03
            1546            1939     158.081E-03     158.141E-03
            1532            1940     139.632E-03     139.720E-03
            1547            1940     139.632E-03     139.720E-03
            1548            1940     139.632E-03     139.720E-03
            1531            1940     139.632E-03     139.720E-03
            1548            1941     121.378E-03     121.458E-03
            1532            1941     121.378E-03     121.458E-03
            1549            1941     121.378E-03     121.458E-03
            1533            1941     121.378E-03     121.458E-03
            1533            1942     103.537E-03     103.646E-03
            1549            1942     103.537E-03     103.646E-03
            1550            1942     103.537E-03     103.646E-03
            1534            1942     103.537E-03     103.646E-03
            1535            1943     86.2825E-03     86.4720E-03
            1551            1943     86.2825E-03     86.4720E-03
            1550            1943     86.2825E-03     86.4720E-03
            1534            1943     86.2825E-03     86.4720E-03
            1551            1944     70.2575E-03     71.3554E-03
            1552            1944     70.2575E-03     71.3554E-03
            1535            1944     70.2575E-03     71.3554E-03
            1536            1944     70.2575E-03     71.3554E-03
            1537            1945     55.5091E-03     61.2811E-03
            1553            1945     55.5091E-03     61.2811E-03
            1552            1945     55.5091E-03     61.2811E-03
            1536            1945     55.5091E-03     61.2811E-03
            1555            1946     304.741E-03     309.105E-03
            1538            1946     304.741E-03     309.105E-03
            1554            1946     304.741E-03     309.105E-03
            1539            1946     304.741E-03     309.105E-03
            1555            1947     290.487E-03     296.535E-03
            1540            1947     290.487E-03     296.535E-03
            1556            1947     290.487E-03     296.535E-03
            1539            1947     290.487E-03     296.535E-03
            1541            1948     273.784E-03     278.277E-03
            1557            1948     273.784E-03     278.277E-03
            1540            1948     273.784E-03     278.277E-03
            1556            1948     273.784E-03     278.277E-03
            1541            1949     254.412E-03     257.999E-03
            1557            1949     254.412E-03     257.999E-03
            1558            1949     254.412E-03     257.999E-03
            1542            1949     254.412E-03     257.999E-03
            1542            1950     234.356E-03     237.614E-03
            1543            1950     234.356E-03     237.614E-03
            1559            1950     234.356E-03     237.614E-03
            1558            1950     234.356E-03     237.614E-03
            1543            1951     214.576E-03     217.587E-03
            1559            1951     214.576E-03     217.587E-03
            1560            1951     214.576E-03     217.587E-03
            1544            1951     214.576E-03     217.587E-03
            1545            1952     194.824E-03     197.783E-03
            1561            1952     194.824E-03     197.783E-03
            1544            1952     194.824E-03     197.783E-03
            1560            1952     194.824E-03     197.783E-03
            1561            1953     175.287E-03     178.183E-03
            1545            1953     175.287E-03     178.183E-03
            1562            1953     175.287E-03     178.183E-03
            1546            1953     175.287E-03     178.183E-03
            1547            1954     155.857E-03     158.731E-03
            1563            1954     155.857E-03     158.731E-03
            1546            1954     155.857E-03     158.731E-03
            1562            1954     155.857E-03     158.731E-03
            1547            1955     136.618E-03     139.409E-03
            1564            1955     136.618E-03     139.409E-03
            1548            1955     136.618E-03     139.409E-03
            1563            1955     136.618E-03     139.409E-03
            1565            1956     117.513E-03     120.260E-03
            1548            1956     117.513E-03     120.260E-03
            1549            1956     117.513E-03     120.260E-03
            1564            1956     117.513E-03     120.260E-03
            1565            1957     98.6751E-03     101.455E-03
            1549            1957     98.6751E-03     101.455E-03
            1566            1957     98.6751E-03     101.455E-03
            1550            1957     98.6751E-03     101.455E-03
            1566            1958     80.0149E-03     83.3658E-03
            1551            1958     80.0149E-03     83.3658E-03
            1550            1958     80.0149E-03     83.3658E-03
            1567            1958     80.0149E-03     83.3658E-03
            1552            1959     61.5010E-03     67.1749E-03
            1568            1959     61.5010E-03     67.1749E-03
            1551            1959     61.5010E-03     67.1749E-03
            1567            1959     61.5010E-03     67.1749E-03
            1569            1960     45.3250E-03     52.6785E-03
            1552            1960     45.3250E-03     52.6785E-03
            1553            1960     45.3250E-03     52.6785E-03
            1568            1960     45.3250E-03     52.6785E-03
            1554            1961     318.414E-03     327.164E-03
            1555            1961     318.414E-03     327.164E-03
            1571            1961     318.414E-03     327.164E-03
            1570            1961     318.414E-03     327.164E-03
            1556            1962     299.275E-03     307.534E-03
            1572            1962     299.275E-03     307.534E-03
            1555            1962     299.275E-03     307.534E-03
            1571            1962     299.275E-03     307.534E-03
            1557            1963     277.022E-03     284.936E-03
            1572            1963     277.022E-03     284.936E-03
            1573            1963     277.022E-03     284.936E-03
            1556            1963     277.022E-03     284.936E-03
            1574            1964     254.739E-03     262.067E-03
            1557            1964     254.739E-03     262.067E-03
            1573            1964     254.739E-03     262.067E-03
            1558            1964     254.739E-03     262.067E-03
            1574            1965     234.068E-03     240.548E-03
            1558            1965     234.068E-03     240.548E-03
            1559            1965     234.068E-03     240.548E-03
            1575            1965     234.068E-03     240.548E-03
            1575            1966     213.560E-03     219.648E-03
            1559            1966     213.560E-03     219.648E-03
            1560            1966     213.560E-03     219.648E-03
            1576            1966     213.560E-03     219.648E-03
            1561            1967     193.383E-03     199.292E-03
            1577            1967     193.383E-03     199.292E-03
            1576            1967     193.383E-03     199.292E-03
            1560            1967     193.383E-03     199.292E-03
            1561            1968     173.361E-03     179.198E-03
            1562            1968     173.361E-03     179.198E-03
            1577            1968     173.361E-03     179.198E-03
            1578            1968     173.361E-03     179.198E-03
            1562            1969     153.512E-03     159.285E-03
            1563            1969     153.512E-03     159.285E-03
            1578            1969     153.512E-03     159.285E-03
            1579            1969     153.512E-03     159.285E-03
            1563            1970     133.770E-03     139.486E-03
            1580            1970     133.770E-03     139.486E-03
            1564            1970     133.770E-03     139.486E-03
            1579            1970     133.770E-03     139.486E-03
            1580            1971     114.185E-03     119.846E-03
            1564            1971     114.185E-03     119.846E-03
            1565            1971     114.185E-03     119.846E-03
            1581            1971     114.185E-03     119.846E-03
            1582            1972     94.6242E-03     100.348E-03
            1565            1972     94.6242E-03     100.348E-03
            1566            1972     94.6242E-03     100.348E-03
            1581            1972     94.6242E-03     100.348E-03
            1582            1973     75.1188E-03     81.6688E-03
            1567            1973     75.1188E-03     81.6688E-03
            1566            1973     75.1188E-03     81.6688E-03
            1583            1973     75.1188E-03     81.6688E-03
            1568            1974     55.6536E-03     63.8647E-03
            1567            1974     55.6536E-03     63.8647E-03
            1584            1974     55.6536E-03     63.8647E-03
            1583            1974     55.6536E-03     63.8647E-03
            1584            1975     37.7806E-03     44.8871E-03
            1568            1975     37.7806E-03     44.8871E-03
            1569            1975     37.7806E-03     44.8871E-03
            1585            1975     37.7806E-03     44.8871E-03
            1586            1976     330.286E-03     335.016E-03
            1587            1976     330.286E-03     335.016E-03
            1570            1976     330.286E-03     335.016E-03
            1571            1976     330.286E-03     335.016E-03
            1571            1977     300.564E-03     309.742E-03
            1588            1977     300.564E-03     309.742E-03
            1587            1977     300.564E-03     309.742E-03
            1572            1977     300.564E-03     309.742E-03
            1588            1978     272.903E-03     283.166E-03
            1589            1978     272.903E-03     283.166E-03
            1572            1978     272.903E-03     283.166E-03
            1573            1978     272.903E-03     283.166E-03
            1590            1979     251.077E-03     260.719E-03
            1589            1979     251.077E-03     260.719E-03
            1573            1979     251.077E-03     260.719E-03
            1574            1979     251.077E-03     260.719E-03
            1591            1980     230.472E-03     239.609E-03
            1575            1980     230.472E-03     239.609E-03
            1590            1980     230.472E-03     239.609E-03
            1574            1980     230.472E-03     239.609E-03
            1576            1981     210.370E-03     219.296E-03
            1575            1981     210.370E-03     219.296E-03
            1592            1981     210.370E-03     219.296E-03
            1591            1981     210.370E-03     219.296E-03
            1592            1982     190.456E-03     199.286E-03
            1577            1982     190.456E-03     199.286E-03
            1576            1982     190.456E-03     199.286E-03
            1593            1982     190.456E-03     199.286E-03
            1578            1983     170.595E-03     179.405E-03
            1593            1983     170.595E-03     179.405E-03
            1594            1983     170.595E-03     179.405E-03
            1577            1983     170.595E-03     179.405E-03
            1595            1984     150.791E-03     159.585E-03
            1594            1984     150.791E-03     159.585E-03
            1579            1984     150.791E-03     159.585E-03
            1578            1984     150.791E-03     159.585E-03
            1579            1985     131.027E-03     139.788E-03
            1595            1985     131.027E-03     139.788E-03
            1580            1985     131.027E-03     139.788E-03
            1596            1985     131.027E-03     139.788E-03
            1581            1986     111.294E-03     120.014E-03
            1597            1986     111.294E-03     120.014E-03
            1596            1986     111.294E-03     120.014E-03
            1580            1986     111.294E-03     120.014E-03
            1597            1987     91.6079E-03     100.384E-03
            1582            1987     91.6079E-03     100.384E-03
            1598            1987     91.6079E-03     100.384E-03
            1581            1987     91.6079E-03     100.384E-03
            1582            1988     71.9431E-03     80.9806E-03
            1599            1988     71.9431E-03     80.9806E-03
            1583            1988     71.9431E-03     80.9806E-03
            1598            1988     71.9431E-03     80.9806E-03
            1600            1989     52.8645E-03     61.9883E-03
            1584            1989     52.8645E-03     61.9883E-03
            1599            1989     52.8645E-03     61.9883E-03
            1583            1989     52.8645E-03     61.9883E-03
            1585            1990     33.1823E-03     44.0224E-03
            1601            1990     33.1823E-03     44.0224E-03
            1584            1990     33.1823E-03     44.0224E-03
            1600            1990     33.1823E-03     44.0224E-03
            1602            1991     329.616E-03     337.114E-03
            1603            1991     329.616E-03     337.114E-03
            1586            1991     329.616E-03     337.114E-03
            1587            1991     329.616E-03     337.114E-03
            1588            1992     290.816E-03     301.005E-03
            1604            1992     290.816E-03     301.005E-03
            1603            1992     290.816E-03     301.005E-03
            1587            1992     290.816E-03     301.005E-03
            1588            1993     264.903E-03     275.572E-03
            1604            1993     264.903E-03     275.572E-03
            1605            1993     264.903E-03     275.572E-03
            1589            1993     264.903E-03     275.572E-03
            1605            1994     244.250E-03     255.273E-03
            1590            1994     244.250E-03     255.273E-03
            1589            1994     244.250E-03     255.273E-03
            1606            1994     244.250E-03     255.273E-03
            1606            1995     224.577E-03     236.011E-03
            1590            1995     224.577E-03     236.011E-03
            1591            1995     224.577E-03     236.011E-03
            1607            1995     224.577E-03     236.011E-03
            1592            1996     205.529E-03     217.170E-03
            1608            1996     205.529E-03     217.170E-03
            1591            1996     205.529E-03     217.170E-03
            1607            1996     205.529E-03     217.170E-03
            1593            1997     186.409E-03     198.162E-03
            1609            1997     186.409E-03     198.162E-03
            1592            1997     186.409E-03     198.162E-03
            1608            1997     186.409E-03     198.162E-03
            1594            1998     167.233E-03     179.054E-03
            1593            1998     167.233E-03     179.054E-03
            1609            1998     167.233E-03     179.054E-03
            1610            1998     167.233E-03     179.054E-03
            1595            1999     147.911E-03     159.763E-03
            1610            1999     147.911E-03     159.763E-03
            1611            1999     147.911E-03     159.763E-03
            1594            1999     147.911E-03     159.763E-03
            1612            2000     128.520E-03     140.403E-03
            1595            2000     128.520E-03     140.403E-03
            1596            2000     128.520E-03     140.403E-03
            1611            2000     128.520E-03     140.403E-03
            1596            2001     109.057E-03     120.929E-03
            1613            2001     109.057E-03     120.929E-03
            1612            2001     109.057E-03     120.929E-03
            1597            2001     109.057E-03     120.929E-03
            1597            2002     89.7081E-03     101.518E-03
            1598            2002     89.7081E-03     101.518E-03
            1613            2002     89.7081E-03     101.518E-03
            1614            2002     89.7081E-03     101.518E-03
            1598            2003     70.6302E-03     81.9294E-03
            1615            2003     70.6302E-03     81.9294E-03
            1599            2003     70.6302E-03     81.9294E-03
            1614            2003     70.6302E-03     81.9294E-03
            1600            2004     52.4730E-03     62.9017E-03
            1616            2004     52.4730E-03     62.9017E-03
            1615            2004     52.4730E-03     62.9017E-03
            1599            2004     52.4730E-03     62.9017E-03
            1601            2005     35.4334E-03     45.5337E-03
            1617            2005     35.4334E-03     45.5337E-03
            1600            2005     35.4334E-03     45.5337E-03
            1616            2005     35.4334E-03     45.5337E-03
            1689            2042     338.886E-03     341.761E-03
            1674            2042     338.886E-03     341.761E-03
            1690            2042     338.886E-03     341.761E-03
            1673            2042     338.886E-03     341.761E-03
            1690            2043     327.936E-03     329.224E-03
            1691            2043     327.936E-03     329.224E-03
            1674            2043     327.936E-03     329.224E-03
            1675            2043     327.936E-03     329.224E-03
            1692            2044     312.261E-03     313.368E-03
            1675            2044     312.261E-03     313.368E-03
            1676            2044     312.261E-03     313.368E-03
            1691            2044     312.261E-03     313.368E-03
            1676            2045     293.495E-03     294.227E-03
            1677            2045     293.495E-03     294.227E-03
            1693            2045     293.495E-03     294.227E-03
            1692            2045     293.495E-03     294.227E-03
            1677            2046     273.486E-03     273.833E-03
            1678            2046     273.486E-03     273.833E-03
            1694            2046     273.486E-03     273.833E-03
            1693            2046     273.486E-03     273.833E-03
            1694            2047     253.203E-03     253.204E-03
            1695            2047     253.203E-03     253.204E-03
            1678            2047     253.203E-03     253.204E-03
            1679            2047     253.203E-03     253.204E-03
            1680            2048     232.769E-03     232.208E-03
            1696            2048     232.769E-03     232.208E-03
            1695            2048     232.769E-03     232.208E-03
            1679            2048     232.769E-03     232.208E-03
            1681            2049     212.346E-03     211.464E-03
            1696            2049     212.346E-03     211.464E-03
            1697            2049     212.346E-03     211.464E-03
            1680            2049     212.346E-03     211.464E-03
            1697            2050     192.160E-03     190.885E-03
            1682            2050     192.160E-03     190.885E-03
            1698            2050     192.160E-03     190.885E-03
            1681            2050     192.160E-03     190.885E-03
            1699            2051     172.364E-03     170.927E-03
            1682            2051     172.364E-03     170.927E-03
            1683            2051     172.364E-03     170.927E-03
            1698            2051     172.364E-03     170.927E-03
            1684            2052     153.110E-03     151.589E-03
            1700            2052     153.110E-03     151.589E-03
            1683            2052     153.110E-03     151.589E-03
            1699            2052     153.110E-03     151.589E-03
            1700            2053     134.752E-03     133.495E-03
            1701            2053     134.752E-03     133.495E-03
            1685            2053     134.752E-03     133.495E-03
            1684            2053     134.752E-03     133.495E-03
            1702            2054     117.124E-03     116.121E-03
            1701            2054     117.124E-03     116.121E-03
            1686            2054     117.124E-03     116.121E-03
            1685            2054     117.124E-03     116.121E-03
            1703            2055     101.102E-03     101.237E-03
            1687            2055     101.102E-03     101.237E-03
            1686            2055     101.102E-03     101.237E-03
            1702            2055     101.102E-03     101.237E-03
            1704            2056     85.3484E-03     87.7563E-03
            1687            2056     85.3484E-03     87.7563E-03
            1703            2056     85.3484E-03     87.7563E-03
            1688            2056     85.3484E-03     87.7563E-03
            1706            2057     365.386E-03     369.074E-03
            1705            2057     365.386E-03     369.074E-03
            1689            2057     365.386E-03     369.074E-03
            1690            2057     365.386E-03     369.074E-03
            1707            2058     358.447E-03     359.587E-03
            1706            2058     358.447E-03     359.587E-03
            1691            2058     358.447E-03     359.587E-03
            1690            2058     358.447E-03     359.587E-03
            1692            2059     341.741E-03     341.699E-03
            1691            2059     341.741E-03     341.699E-03
            1708            2059     341.741E-03     341.699E-03
            1707            2059     341.741E-03     341.699E-03
            1709            2060     320.963E-03     320.625E-03
            1708            2060     320.963E-03     320.625E-03
            1693            2060     320.963E-03     320.625E-03
            1692            2060     320.963E-03     320.625E-03
            1694            2061     299.835E-03     298.702E-03
            1693            2061     299.835E-03     298.702E-03
            1710            2061     299.835E-03     298.702E-03
            1709            2061     299.835E-03     298.702E-03
            1694            2062     278.332E-03     276.664E-03
            1711            2062     278.332E-03     276.664E-03
            1710            2062     278.332E-03     276.664E-03
            1695            2062     278.332E-03     276.664E-03
            1711            2063     256.956E-03     254.632E-03
            1696            2063     256.956E-03     254.632E-03
            1712            2063     256.956E-03     254.632E-03
            1695            2063     256.956E-03     254.632E-03
            1696            2064     235.791E-03     232.945E-03
            1697            2064     235.791E-03     232.945E-03
            1712            2064     235.791E-03     232.945E-03
            1713            2064     235.791E-03     232.945E-03
            1713            2065     215.085E-03     211.776E-03
            1697            2065     215.085E-03     211.776E-03
            1698            2065     215.085E-03     211.776E-03
            1714            2065     215.085E-03     211.776E-03
            1698            2066     195.188E-03     191.552E-03
            1714            2066     195.188E-03     191.552E-03
            1715            2066     195.188E-03     191.552E-03
            1699            2066     195.188E-03     191.552E-03
            1699            2067     176.291E-03     172.464E-03
            1715            2067     176.291E-03     172.464E-03
            1700            2067     176.291E-03     172.464E-03
            1716            2067     176.291E-03     172.464E-03
            1716            2068     159.085E-03     155.449E-03
            1717            2068     159.085E-03     155.449E-03
            1700            2068     159.085E-03     155.449E-03
            1701            2068     159.085E-03     155.449E-03
            1701            2069     143.294E-03     140.309E-03
            1702            2069     143.294E-03     140.309E-03
            1717            2069     143.294E-03     140.309E-03
            1718            2069     143.294E-03     140.309E-03
            1718            2070     129.183E-03     128.132E-03
            1703            2070     129.183E-03     128.132E-03
            1702            2070     129.183E-03     128.132E-03
            1719            2070     129.183E-03     128.132E-03
            1720            2071     111.698E-03     114.186E-03
            1704            2071     111.698E-03     114.186E-03
            1719            2071     111.698E-03     114.186E-03
            1703            2071     111.698E-03     114.186E-03
            1705            2072     394.374E-03     399.636E-03
            1706            2072     394.374E-03     399.636E-03
            1721            2072     394.374E-03     399.636E-03
            1722            2072     394.374E-03     399.636E-03
            1722            2073     371.165E-03     379.712E-03
            1706            2073     371.165E-03     379.712E-03
            1707            2073     371.165E-03     379.712E-03
            1723            2073     371.165E-03     379.712E-03
            1707            2074     343.537E-03     351.642E-03
            1723            2074     343.537E-03     351.642E-03
            1708            2074     343.537E-03     351.642E-03
            1724            2074     343.537E-03     351.642E-03
            1709            2075     318.426E-03     326.016E-03
            1725            2075     318.426E-03     326.016E-03
            1724            2075     318.426E-03     326.016E-03
            1708            2075     318.426E-03     326.016E-03
            1709            2076     293.969E-03     301.333E-03
            1710            2076     293.969E-03     301.333E-03
            1726            2076     293.969E-03     301.333E-03
            1725            2076     293.969E-03     301.333E-03
            1710            2077     270.016E-03     277.296E-03
            1726            2077     270.016E-03     277.296E-03
            1711            2077     270.016E-03     277.296E-03
            1727            2077     270.016E-03     277.296E-03
            1727            2078     246.585E-03     253.919E-03
            1728            2078     246.585E-03     253.919E-03
            1711            2078     246.585E-03     253.919E-03
            1712            2078     246.585E-03     253.919E-03
            1713            2079     223.709E-03     230.982E-03
            1728            2079     223.709E-03     230.982E-03
            1729            2079     223.709E-03     230.982E-03
            1712            2079     223.709E-03     230.982E-03
            1729            2080     201.488E-03     208.736E-03
            1714            2080     201.488E-03     208.736E-03
            1730            2080     201.488E-03     208.736E-03
            1713            2080     201.488E-03     208.736E-03
            1714            2081     180.117E-03     187.229E-03
            1715            2081     180.117E-03     187.229E-03
            1731            2081     180.117E-03     187.229E-03
            1730            2081     180.117E-03     187.229E-03
            1715            2082     160.095E-03     166.978E-03
            1716            2082     160.095E-03     166.978E-03
            1731            2082     160.095E-03     166.978E-03
            1732            2082     160.095E-03     166.978E-03
            1717            2083     141.930E-03     148.174E-03
            1716            2083     141.930E-03     148.174E-03
            1733            2083     141.930E-03     148.174E-03
            1732            2083     141.930E-03     148.174E-03
            1717            2084     126.172E-03     132.466E-03
            1734            2084     126.172E-03     132.466E-03
            1718            2084     126.172E-03     132.466E-03
            1733            2084     126.172E-03     132.466E-03
            1718            2085     111.780E-03     117.347E-03
            1735            2085     111.780E-03     117.347E-03
            1719            2085     111.780E-03     117.347E-03
            1734            2085     111.780E-03     117.347E-03
            1719            2086     92.5068E-03     92.1459E-03
            1736            2086     92.5068E-03     92.1459E-03
            1720            2086     92.5068E-03     92.1459E-03
            1735            2086     92.5068E-03     92.1459E-03
            1721            2087     404.503E-03     413.927E-03
            1737            2087     404.503E-03     413.927E-03
            1738            2087     404.503E-03     413.927E-03
            1722            2087     404.503E-03     413.927E-03
            1738            2088     366.723E-03     379.547E-03
            1739            2088     366.723E-03     379.547E-03
            1722            2088     366.723E-03     379.547E-03
            1723            2088     366.723E-03     379.547E-03
            1723            2089     336.478E-03     350.755E-03
            1740            2089     336.478E-03     350.755E-03
            1724            2089     336.478E-03     350.755E-03
            1739            2089     336.478E-03     350.755E-03
            1741            2090     310.582E-03     325.294E-03
            1740            2090     310.582E-03     325.294E-03
            1724            2090     310.582E-03     325.294E-03
            1725            2090     310.582E-03     325.294E-03
            1725            2091     285.064E-03     300.543E-03
            1741            2091     285.064E-03     300.543E-03
            1742            2091     285.064E-03     300.543E-03
            1726            2091     285.064E-03     300.543E-03
            1742            2092     260.169E-03     276.436E-03
            1743            2092     260.169E-03     276.436E-03
            1726            2092     260.169E-03     276.436E-03
            1727            2092     260.169E-03     276.436E-03
            1743            2093     235.707E-03     252.571E-03
            1728            2093     235.707E-03     252.571E-03
            1727            2093     235.707E-03     252.571E-03
            1744            2093     235.707E-03     252.571E-03
            1728            2094     211.685E-03     229.230E-03
            1745            2094     211.685E-03     229.230E-03
            1744            2094     211.685E-03     229.230E-03
            1729            2094     211.685E-03     229.230E-03
            1729            2095     188.311E-03     206.271E-03
            1745            2095     188.311E-03     206.271E-03
            1730            2095     188.311E-03     206.271E-03
            1746            2095     188.311E-03     206.271E-03
            1731            2096     165.693E-03     184.008E-03
            1747            2096     165.693E-03     184.008E-03
            1746            2096     165.693E-03     184.008E-03
            1730            2096     165.693E-03     184.008E-03
            1731            2097     144.266E-03     162.600E-03
            1732            2097     144.266E-03     162.600E-03
            1748            2097     144.266E-03     162.600E-03
            1747            2097     144.266E-03     162.600E-03
            1733            2098     124.624E-03     142.376E-03
            1748            2098     124.624E-03     142.376E-03
            1749            2098     124.624E-03     142.376E-03
            1732            2098     124.624E-03     142.376E-03
            1734            2099     107.178E-03     123.359E-03
            1750            2099     107.178E-03     123.359E-03
            1749            2099     107.178E-03     123.359E-03
            1733            2099     107.178E-03     123.359E-03
            1750            2100     91.6767E-03     103.275E-03
            1751            2100     91.6767E-03     103.275E-03
            1735            2100     91.6767E-03     103.275E-03
            1734            2100     91.6767E-03     103.275E-03
            1751            2101     76.0167E-03     74.9960E-03
            1752            2101     76.0167E-03     74.9960E-03
            1735            2101     76.0167E-03     74.9960E-03
            1736            2101     76.0167E-03     74.9960E-03
            2369            2543     239.820E-03     255.253E-03
            2370            2543     239.820E-03     255.253E-03
            2386            2543     239.820E-03     255.253E-03
            2385            2543     239.820E-03     255.253E-03
            2387            2544     211.619E-03     229.070E-03
            2370            2544     211.619E-03     229.070E-03
            2386            2544     211.619E-03     229.070E-03
            2371            2544     211.619E-03     229.070E-03
            2371            2545     194.972E-03     212.654E-03
            2372            2545     194.972E-03     212.654E-03
            2388            2545     194.972E-03     212.654E-03
            2387            2545     194.972E-03     212.654E-03
            2372            2546     179.888E-03     197.313E-03
            2389            2546     179.888E-03     197.313E-03
            2373            2546     179.888E-03     197.313E-03
            2388            2546     179.888E-03     197.313E-03
            2389            2547     164.329E-03     181.676E-03
            2374            2547     164.329E-03     181.676E-03
            2373            2547     164.329E-03     181.676E-03
            2390            2547     164.329E-03     181.676E-03
            2375            2548     149.048E-03     166.436E-03
            2391            2548     149.048E-03     166.436E-03
            2374            2548     149.048E-03     166.436E-03
            2390            2548     149.048E-03     166.436E-03
            2392            2549     133.964E-03     151.124E-03
            2391            2549     133.964E-03     151.124E-03
            2375            2549     133.964E-03     151.124E-03
            2376            2549     133.964E-03     151.124E-03
            2376            2550     119.032E-03     136.108E-03
            2377            2550     119.032E-03     136.108E-03
            2392            2550     119.032E-03     136.108E-03
            2393            2550     119.032E-03     136.108E-03
            2378            2551     104.442E-03     121.181E-03
            2393            2551     104.442E-03     121.181E-03
            2394            2551     104.442E-03     121.181E-03
            2377            2551     104.442E-03     121.181E-03
            2378            2552     90.2147E-03     106.614E-03
            2394            2552     90.2147E-03     106.614E-03
            2395            2552     90.2147E-03     106.614E-03
            2379            2552     90.2147E-03     106.614E-03
            2396            2553     76.6886E-03     92.3966E-03
            2379            2553     76.6886E-03     92.3966E-03
            2380            2553     76.6886E-03     92.3966E-03
            2395            2553     76.6886E-03     92.3966E-03
            2380            2554     64.1963E-03     78.8806E-03
            2381            2554     64.1963E-03     78.8806E-03
            2396            2554     64.1963E-03     78.8806E-03
            2397            2554     64.1963E-03     78.8806E-03
            2398            2555     53.6693E-03     66.3753E-03
            2397            2555     53.6693E-03     66.3753E-03
            2382            2555     53.6693E-03     66.3753E-03
            2381            2555     53.6693E-03     66.3753E-03
            2383            2556     47.2245E-03     56.4920E-03
            2398            2556     47.2245E-03     56.4920E-03
            2399            2556     47.2245E-03     56.4920E-03
            2382            2556     47.2245E-03     56.4920E-03
            2399            2557     45.1514E-03     47.2659E-03
            2400            2557     45.1514E-03     47.2659E-03
            2383            2557     45.1514E-03     47.2659E-03
            2384            2557     45.1514E-03     47.2659E-03
            2385            2558     225.774E-03     214.424E-03
            2402            2558     225.774E-03     214.424E-03
            2401            2558     225.774E-03     214.424E-03
            2386            2558     225.774E-03     214.424E-03
            2403            2559     225.704E-03     216.639E-03
            2402            2559     225.704E-03     216.639E-03
            2386            2559     225.704E-03     216.639E-03
            2387            2559     225.704E-03     216.639E-03
            2388            2560     209.705E-03     200.766E-03
            2387            2560     209.705E-03     200.766E-03
            2403            2560     209.705E-03     200.766E-03
            2404            2560     209.705E-03     200.766E-03
            2388            2561     194.654E-03     185.512E-03
            2404            2561     194.654E-03     185.512E-03
            2389            2561     194.654E-03     185.512E-03
            2405            2561     194.654E-03     185.512E-03
            2406            2562     179.664E-03     170.822E-03
            2405            2562     179.664E-03     170.822E-03
            2389            2562     179.664E-03     170.822E-03
            2390            2562     179.664E-03     170.822E-03
            2390            2563     164.841E-03     155.996E-03
            2407            2563     164.841E-03     155.996E-03
            2406            2563     164.841E-03     155.996E-03
            2391            2563     164.841E-03     155.996E-03
            2408            2564     149.952E-03     141.348E-03
            2391            2564     149.952E-03     141.348E-03
            2407            2564     149.952E-03     141.348E-03
            2392            2564     149.952E-03     141.348E-03
            2408            2565     135.325E-03     126.841E-03
            2409            2565     135.325E-03     126.841E-03
            2392            2565     135.325E-03     126.841E-03
            2393            2565     135.325E-03     126.841E-03
            2410            2566     120.894E-03     112.726E-03
            2409            2566     120.894E-03     112.726E-03
            2393            2566     120.894E-03     112.726E-03
            2394            2566     120.894E-03     112.726E-03
            2411            2567     106.884E-03     99.0509E-03
            2410            2567     106.884E-03     99.0509E-03
            2395            2567     106.884E-03     99.0509E-03
            2394            2567     106.884E-03     99.0509E-03
            2411            2568     93.4133E-03     86.1574E-03
            2412            2568     93.4133E-03     86.1574E-03
            2396            2568     93.4133E-03     86.1574E-03
            2395            2568     93.4133E-03     86.1574E-03
            2413            2569     80.7675E-03     74.3191E-03
            2396            2569     80.7675E-03     74.3191E-03
            2412            2569     80.7675E-03     74.3191E-03
            2397            2569     80.7675E-03     74.3191E-03
            2413            2570     69.5888E-03     64.0986E-03
            2414            2570     69.5888E-03     64.0986E-03
            2397            2570     69.5888E-03     64.0986E-03
            2398            2570     69.5888E-03     64.0986E-03
            2415            2571     60.5327E-03     56.9943E-03
            2414            2571     60.5327E-03     56.9943E-03
            2399            2571     60.5327E-03     56.9943E-03
            2398            2571     60.5327E-03     56.9943E-03
            2415            2572     53.7486E-03     52.8198E-03
            2416            2572     53.7486E-03     52.8198E-03
            2399            2572     53.7486E-03     52.8198E-03
            2400            2572     53.7486E-03     52.8198E-03
            2402            2573     195.215E-03     199.211E-03
            2417            2573     195.215E-03     199.211E-03
            2418            2573     195.215E-03     199.211E-03
            2401            2573     195.215E-03     199.211E-03
            2418            2574     176.896E-03     174.659E-03
            2403            2574     176.896E-03     174.659E-03
            2402            2574     176.896E-03     174.659E-03
            2419            2574     176.896E-03     174.659E-03
            2403            2575     160.643E-03     157.057E-03
            2420            2575     160.643E-03     157.057E-03
            2404            2575     160.643E-03     157.057E-03
            2419            2575     160.643E-03     157.057E-03
            2421            2576     146.609E-03     143.271E-03
            2405            2576     146.609E-03     143.271E-03
            2404            2576     146.609E-03     143.271E-03
            2420            2576     146.609E-03     143.271E-03
            2421            2577     135.486E-03     132.166E-03
            2406            2577     135.486E-03     132.166E-03
            2422            2577     135.486E-03     132.166E-03
            2405            2577     135.486E-03     132.166E-03
            2406            2578     124.821E-03     121.424E-03
            2423            2578     124.821E-03     121.424E-03
            2422            2578     124.821E-03     121.424E-03
            2407            2578     124.821E-03     121.424E-03
            2407            2579     114.410E-03     111.070E-03
            2408            2579     114.410E-03     111.070E-03
            2424            2579     114.410E-03     111.070E-03
            2423            2579     114.410E-03     111.070E-03
            2408            2580     104.204E-03     100.783E-03
            2424            2580     104.204E-03     100.783E-03
            2409            2580     104.204E-03     100.783E-03
            2425            2580     104.204E-03     100.783E-03
            2409            2581     94.1930E-03     90.8100E-03
            2426            2581     94.1930E-03     90.8100E-03
            2410            2581     94.1930E-03     90.8100E-03
            2425            2581     94.1930E-03     90.8100E-03
            2427            2582     84.6337E-03     81.1919E-03
            2426            2582     84.6337E-03     81.1919E-03
            2411            2582     84.6337E-03     81.1919E-03
            2410            2582     84.6337E-03     81.1919E-03
            2411            2583     75.5387E-03     72.1230E-03
            2412            2583     75.5387E-03     72.1230E-03
            2428            2583     75.5387E-03     72.1230E-03
            2427            2583     75.5387E-03     72.1230E-03
            2412            2584     67.2850E-03     63.9441E-03
            2428            2584     67.2850E-03     63.9441E-03
            2413            2584     67.2850E-03     63.9441E-03
            2429            2584     67.2850E-03     63.9441E-03
            2430            2585     59.9750E-03     56.8569E-03
            2429            2585     59.9750E-03     56.8569E-03
            2414            2585     59.9750E-03     56.8569E-03
            2413            2585     59.9750E-03     56.8569E-03
            2415            2586     53.8409E-03     51.9863E-03
            2414            2586     53.8409E-03     51.9863E-03
            2431            2586     53.8409E-03     51.9863E-03
            2430            2586     53.8409E-03     51.9863E-03
            2416            2587     47.3912E-03     48.2686E-03
            2415            2587     47.3912E-03     48.2686E-03
            2431            2587     47.3912E-03     48.2686E-03
            2432            2587     47.3912E-03     48.2686E-03
            2433            2588     178.976E-03     190.594E-03
            2434            2588     178.976E-03     190.594E-03
            2418            2588     178.976E-03     190.594E-03
            2417            2588     178.976E-03     190.594E-03
            2418            2589     128.716E-03     142.437E-03
            2434            2589     128.716E-03     142.437E-03
            2419            2589     128.716E-03     142.437E-03
            2435            2589     128.716E-03     142.437E-03
            2435            2590     106.091E-03     119.622E-03
            2420            2590     106.091E-03     119.622E-03
            2419            2590     106.091E-03     119.622E-03
            2436            2590     106.091E-03     119.622E-03
            2421            2591     94.7509E-03     107.932E-03
            2436            2591     94.7509E-03     107.932E-03
            2420            2591     94.7509E-03     107.932E-03
            2437            2591     94.7509E-03     107.932E-03
            2438            2592     86.4542E-03     99.4432E-03
            2437            2592     86.4542E-03     99.4432E-03
            2421            2592     86.4542E-03     99.4432E-03
            2422            2592     86.4542E-03     99.4432E-03
            2438            2593     79.8930E-03     92.5449E-03
            2422            2593     79.8930E-03     92.5449E-03
            2423            2593     79.8930E-03     92.5449E-03
            2439            2593     79.8930E-03     92.5449E-03
            2423            2594     73.5900E-03     85.8797E-03
            2424            2594     73.5900E-03     85.8797E-03
            2440            2594     73.5900E-03     85.8797E-03
            2439            2594     73.5900E-03     85.8797E-03
            2424            2595     67.6268E-03     79.4934E-03
            2425            2595     67.6268E-03     79.4934E-03
            2441            2595     67.6268E-03     79.4934E-03
            2440            2595     67.6268E-03     79.4934E-03
            2426            2596     61.9347E-03     73.1979E-03
            2425            2596     61.9347E-03     73.1979E-03
            2441            2596     61.9347E-03     73.1979E-03
            2442            2596     61.9347E-03     73.1979E-03
            2427            2597     56.6855E-03     67.1728E-03
            2426            2597     56.6855E-03     67.1728E-03
            2442            2597     56.6855E-03     67.1728E-03
            2443            2597     56.6855E-03     67.1728E-03
            2428            2598     52.0336E-03     61.3979E-03
            2444            2598     52.0336E-03     61.3979E-03
            2443            2598     52.0336E-03     61.3979E-03
            2427            2598     52.0336E-03     61.3979E-03
            2428            2599     48.1696E-03     55.9901E-03
            2444            2599     48.1696E-03     55.9901E-03
            2429            2599     48.1696E-03     55.9901E-03
            2445            2599     48.1696E-03     55.9901E-03
            2430            2600     45.0818E-03     51.0329E-03
            2445            2600     45.0818E-03     51.0329E-03
            2429            2600     45.0818E-03     51.0329E-03
            2446            2600     45.0818E-03     51.0329E-03
            2430            2601     42.9451E-03     47.1425E-03
            2446            2601     42.9451E-03     47.1425E-03
            2447            2601     42.9451E-03     47.1425E-03
            2431            2601     42.9451E-03     47.1425E-03
            2432            2602     41.5838E-03     43.7164E-03
            2448            2602     41.5838E-03     43.7164E-03
            2447            2602     41.5838E-03     43.7164E-03
            2431            2602     41.5838E-03     43.7164E-03
            2449            2603     162.991E-03     164.011E-03
            2433            2603     162.991E-03     164.011E-03
            2450            2603     162.991E-03     164.011E-03
            2434            2603     162.991E-03     164.011E-03
            2451            2604     130.595E-03     136.663E-03
            2450            2604     130.595E-03     136.663E-03
            2435            2604     130.595E-03     136.663E-03
            2434            2604     130.595E-03     136.663E-03
            2451            2605     110.115E-03     118.854E-03
            2436            2605     110.115E-03     118.854E-03
            2452            2605     110.115E-03     118.854E-03
            2435            2605     110.115E-03     118.854E-03
            2436            2606     99.8897E-03     108.945E-03
            2437            2606     99.8897E-03     108.945E-03
            2453            2606     99.8897E-03     108.945E-03
            2452            2606     99.8897E-03     108.945E-03
            2438            2607     92.4703E-03     101.013E-03
            2454            2607     92.4703E-03     101.013E-03
            2437            2607     92.4703E-03     101.013E-03
            2453            2607     92.4703E-03     101.013E-03
            2454            2608     85.4974E-03     93.7415E-03
            2438            2608     85.4974E-03     93.7415E-03
            2439            2608     85.4974E-03     93.7415E-03
            2455            2608     85.4974E-03     93.7415E-03
            2455            2609     79.0401E-03     86.9363E-03
            2456            2609     79.0401E-03     86.9363E-03
            2439            2609     79.0401E-03     86.9363E-03
            2440            2609     79.0401E-03     86.9363E-03
            2440            2610     72.8377E-03     80.3905E-03
            2441            2610     72.8377E-03     80.3905E-03
            2456            2610     72.8377E-03     80.3905E-03
            2457            2610     72.8377E-03     80.3905E-03
            2458            2611     67.0885E-03     74.2179E-03
            2441            2611     67.0885E-03     74.2179E-03
            2442            2611     67.0885E-03     74.2179E-03
            2457            2611     67.0885E-03     74.2179E-03
            2458            2612     61.8256E-03     68.3866E-03
            2442            2612     61.8256E-03     68.3866E-03
            2459            2612     61.8256E-03     68.3866E-03
            2443            2612     61.8256E-03     68.3866E-03
            2459            2613     57.2327E-03     63.0755E-03
            2460            2613     57.2327E-03     63.0755E-03
            2443            2613     57.2327E-03     63.0755E-03
            2444            2613     57.2327E-03     63.0755E-03
            2460            2614     53.4584E-03     58.1336E-03
            2445            2614     53.4584E-03     58.1336E-03
            2461            2614     53.4584E-03     58.1336E-03
            2444            2614     53.4584E-03     58.1336E-03
            2446            2615     50.4625E-03     53.7531E-03
            2461            2615     50.4625E-03     53.7531E-03
            2462            2615     50.4625E-03     53.7531E-03
            2445            2615     50.4625E-03     53.7531E-03
            2446            2616     48.4662E-03     49.6460E-03
            2462            2616     48.4662E-03     49.6460E-03
            2447            2616     48.4662E-03     49.6460E-03
            2463            2616     48.4662E-03     49.6460E-03
            2464            2617     47.3718E-03     44.4439E-03
            2447            2617     47.3718E-03     44.4439E-03
            2448            2617     47.3718E-03     44.4439E-03
            2463            2617     47.3718E-03     44.4439E-03
            2450            2618     133.533E-03     137.100E-03
            2465            2618     133.533E-03     137.100E-03
            2466            2618     133.533E-03     137.100E-03
            2449            2618     133.533E-03     137.100E-03
            2467            2619     118.980E-03     122.795E-03
            2466            2619     118.980E-03     122.795E-03
            2450            2619     118.980E-03     122.795E-03
            2451            2619     118.980E-03     122.795E-03
            2467            2620     111.261E-03     116.064E-03
            2451            2620     111.261E-03     116.064E-03
            2452            2620     111.261E-03     116.064E-03
            2468            2620     111.261E-03     116.064E-03
            2469            2621     104.423E-03     109.095E-03
            2452            2621     104.423E-03     109.095E-03
            2468            2621     104.423E-03     109.095E-03
            2453            2621     104.423E-03     109.095E-03
            2470            2622     97.7430E-03     101.964E-03
            2453            2622     97.7430E-03     101.964E-03
            2469            2622     97.7430E-03     101.964E-03
            2454            2622     97.7430E-03     101.964E-03
            2454            2623     90.6984E-03     94.5980E-03
            2455            2623     90.6984E-03     94.5980E-03
            2471            2623     90.6984E-03     94.5980E-03
            2470            2623     90.6984E-03     94.5980E-03
            2471            2624     83.9398E-03     87.6413E-03
            2472            2624     83.9398E-03     87.6413E-03
            2455            2624     83.9398E-03     87.6413E-03
            2456            2624     83.9398E-03     87.6413E-03
            2456            2625     77.6188E-03     81.0941E-03
            2457            2625     77.6188E-03     81.0941E-03
            2473            2625     77.6188E-03     81.0941E-03
            2472            2625     77.6188E-03     81.0941E-03
            2458            2626     71.7954E-03     75.0522E-03
            2457            2626     71.7954E-03     75.0522E-03
            2474            2626     71.7954E-03     75.0522E-03
            2473            2626     71.7954E-03     75.0522E-03
            2459            2627     66.5923E-03     69.5793E-03
            2475            2627     66.5923E-03     69.5793E-03
            2458            2627     66.5923E-03     69.5793E-03
            2474            2627     66.5923E-03     69.5793E-03
            2460            2628     62.0335E-03     64.6625E-03
            2459            2628     62.0335E-03     64.6625E-03
            2475            2628     62.0335E-03     64.6625E-03
            2476            2628     62.0335E-03     64.6625E-03
            2460            2629     58.2333E-03     60.4531E-03
            2476            2629     58.2333E-03     60.4531E-03
            2477            2629     58.2333E-03     60.4531E-03
            2461            2629     58.2333E-03     60.4531E-03
            2462            2630     55.5161E-03     56.4108E-03
            2478            2630     55.5161E-03     56.4108E-03
            2461            2630     55.5161E-03     56.4108E-03
            2477            2630     55.5161E-03     56.4108E-03
            2478            2631     53.6842E-03     51.5991E-03
            2462            2631     53.6842E-03     51.5991E-03
            2479            2631     53.6842E-03     51.5991E-03
            2463            2631     53.6842E-03     51.5991E-03
            2480            2632     51.9236E-03     46.8949E-03
            2464            2632     51.9236E-03     46.8949E-03
            2463            2632     51.9236E-03     46.8949E-03
            2479            2632     51.9236E-03     46.8949E-03
            2481            2633     106.064E-03     106.490E-03
            2465            2633     106.064E-03     106.490E-03
            2466            2633     106.064E-03     106.490E-03
            2482            2633     106.064E-03     106.490E-03
            2467            2634     101.858E-03     105.172E-03
            2482            2634     101.858E-03     105.172E-03
            2466            2634     101.858E-03     105.172E-03
            2483            2634     101.858E-03     105.172E-03
            2483            2635     107.702E-03     109.109E-03
            2484            2635     107.702E-03     109.109E-03
            2468            2635     107.702E-03     109.109E-03
            2467            2635     107.702E-03     109.109E-03
            2468            2636     106.714E-03     106.600E-03
            2469            2636     106.714E-03     106.600E-03
            2485            2636     106.714E-03     106.600E-03
            2484            2636     106.714E-03     106.600E-03
            2485            2637     100.809E-03     100.573E-03
            2470            2637     100.809E-03     100.573E-03
            2486            2637     100.809E-03     100.573E-03
            2469            2637     100.809E-03     100.573E-03
            2487            2638     94.4201E-03     94.0132E-03
            2471            2638     94.4201E-03     94.0132E-03
            2486            2638     94.4201E-03     94.0132E-03
            2470            2638     94.4201E-03     94.0132E-03
            2471            2639     87.8003E-03     87.3748E-03
            2472            2639     87.8003E-03     87.3748E-03
            2488            2639     87.8003E-03     87.3748E-03
            2487            2639     87.8003E-03     87.3748E-03
            2489            2640     81.6605E-03     81.2468E-03
            2473            2640     81.6605E-03     81.2468E-03
            2472            2640     81.6605E-03     81.2468E-03
            2488            2640     81.6605E-03     81.2468E-03
            2473            2641     76.0257E-03     75.6296E-03
            2489            2641     76.0257E-03     75.6296E-03
            2490            2641     76.0257E-03     75.6296E-03
            2474            2641     76.0257E-03     75.6296E-03
            2474            2642     70.9600E-03     70.6245E-03
            2475            2642     70.9600E-03     70.6245E-03
            2491            2642     70.9600E-03     70.6245E-03
            2490            2642     70.9600E-03     70.6245E-03
            2475            2643     66.5218E-03     66.2688E-03
            2491            2643     66.5218E-03     66.2688E-03
            2492            2643     66.5218E-03     66.2688E-03
            2476            2643     66.5218E-03     66.2688E-03
            2492            2644     62.6894E-03     62.6136E-03
            2493            2644     62.6894E-03     62.6136E-03
            2477            2644     62.6894E-03     62.6136E-03
            2476            2644     62.6894E-03     62.6136E-03
            2478            2645     59.6823E-03     59.4644E-03
            2494            2645     59.6823E-03     59.4644E-03
            2493            2645     59.6823E-03     59.4644E-03
            2477            2645     59.6823E-03     59.4644E-03
            2479            2646     57.7605E-03     55.7182E-03
            2494            2646     57.7605E-03     55.7182E-03
            2495            2646     57.7605E-03     55.7182E-03
            2478            2646     57.7605E-03     55.7182E-03
            2495            2647     55.9416E-03     51.0957E-03
            2496            2647     55.9416E-03     51.0957E-03
            2480            2647     55.9416E-03     51.0957E-03
            2479            2647     55.9416E-03     51.0957E-03
            2481            2648     78.5457E-03     77.8093E-03
            2482            2648     78.5457E-03     77.8093E-03
            2497            2648     78.5457E-03     77.8093E-03
            2498            2648     78.5457E-03     77.8093E-03
            2482            2649     88.9507E-03     86.9797E-03
            2499            2649     88.9507E-03     86.9797E-03
            2483            2649     88.9507E-03     86.9797E-03
            2498            2649     88.9507E-03     86.9797E-03
            2500            2650     103.058E-03     98.6887E-03
            2483            2650     103.058E-03     98.6887E-03
            2499            2650     103.058E-03     98.6887E-03
            2484            2650     103.058E-03     98.6887E-03
            2484            2651     104.602E-03     99.6744E-03
            2500            2651     104.602E-03     99.6744E-03
            2485            2651     104.602E-03     99.6744E-03
            2501            2651     104.602E-03     99.6744E-03
            2485            2652     101.405E-03     96.4038E-03
            2502            2652     101.405E-03     96.4038E-03
            2501            2652     101.405E-03     96.4038E-03
            2486            2652     101.405E-03     96.4038E-03
            2487            2653     96.0469E-03     91.3402E-03
            2503            2653     96.0469E-03     91.3402E-03
            2502            2653     96.0469E-03     91.3402E-03
            2486            2653     96.0469E-03     91.3402E-03
            2487            2654     90.4888E-03     86.0343E-03
            2488            2654     90.4888E-03     86.0343E-03
            2504            2654     90.4888E-03     86.0343E-03
            2503            2654     90.4888E-03     86.0343E-03
            2504            2655     84.9734E-03     80.8291E-03
            2505            2655     84.9734E-03     80.8291E-03
            2489            2655     84.9734E-03     80.8291E-03
            2488            2655     84.9734E-03     80.8291E-03
            2489            2656     79.8413E-03     76.0328E-03
            2505            2656     79.8413E-03     76.0328E-03
            2506            2656     79.8413E-03     76.0328E-03
            2490            2656     79.8413E-03     76.0328E-03
            2490            2657     75.1104E-03     71.6904E-03
            2506            2657     75.1104E-03     71.6904E-03
            2491            2657     75.1104E-03     71.6904E-03
            2507            2657     75.1104E-03     71.6904E-03
            2491            2658     70.8381E-03     67.9594E-03
            2508            2658     70.8381E-03     67.9594E-03
            2492            2658     70.8381E-03     67.9594E-03
            2507            2658     70.8381E-03     67.9594E-03
            2508            2659     67.0769E-03     64.7788E-03
            2492            2659     67.0769E-03     64.7788E-03
            2493            2659     67.0769E-03     64.7788E-03
            2509            2659     67.0769E-03     64.7788E-03
            2494            2660     63.5285E-03     62.5595E-03
            2510            2660     63.5285E-03     62.5595E-03
            2509            2660     63.5285E-03     62.5595E-03
            2493            2660     63.5285E-03     62.5595E-03
            2494            2661     60.5986E-03     61.2281E-03
            2495            2661     60.5986E-03     61.2281E-03
            2511            2661     60.5986E-03     61.2281E-03
            2510            2661     60.5986E-03     61.2281E-03
            2496            2662     59.3076E-03     58.0255E-03
            2511            2662     59.3076E-03     58.0255E-03
            2495            2662     59.3076E-03     58.0255E-03
            2512            2662     59.3076E-03     58.0255E-03
            2513            2663     59.2601E-03     56.8341E-03
            2514            2663     59.2601E-03     56.8341E-03
            2497            2663     59.2601E-03     56.8341E-03
            2498            2663     59.2601E-03     56.8341E-03
            2498            2664     80.0014E-03     68.3393E-03
            2515            2664     80.0014E-03     68.3393E-03
            2499            2664     80.0014E-03     68.3393E-03
            2514            2664     80.0014E-03     68.3393E-03
            2499            2665     95.2298E-03     83.8478E-03
            2515            2665     95.2298E-03     83.8478E-03
            2500            2665     95.2298E-03     83.8478E-03
            2516            2665     95.2298E-03     83.8478E-03
            2501            2666     99.6112E-03     89.2897E-03
            2500            2666     99.6112E-03     89.2897E-03
            2516            2666     99.6112E-03     89.2897E-03
            2517            2666     99.6112E-03     89.2897E-03
            2502            2667     99.2737E-03     89.7136E-03
            2501            2667     99.2737E-03     89.7136E-03
            2517            2667     99.2737E-03     89.7136E-03
            2518            2667     99.2737E-03     89.7136E-03
            2519            2668     96.3773E-03     87.4426E-03
            2518            2668     96.3773E-03     87.4426E-03
            2502            2668     96.3773E-03     87.4426E-03
            2503            2668     96.3773E-03     87.4426E-03
            2520            2669     92.3514E-03     84.1146E-03
            2503            2669     92.3514E-03     84.1146E-03
            2504            2669     92.3514E-03     84.1146E-03
            2519            2669     92.3514E-03     84.1146E-03
            2504            2670     87.9901E-03     80.3608E-03
            2505            2670     87.9901E-03     80.3608E-03
            2520            2670     87.9901E-03     80.3608E-03
            2521            2670     87.9901E-03     80.3608E-03
            2522            2671     83.5431E-03     76.6219E-03
            2506            2671     83.5431E-03     76.6219E-03
            2505            2671     83.5431E-03     76.6219E-03
            2521            2671     83.5431E-03     76.6219E-03
            2507            2672     79.2865E-03     73.1167E-03
            2522            2672     79.2865E-03     73.1167E-03
            2523            2672     79.2865E-03     73.1167E-03
            2506            2672     79.2865E-03     73.1167E-03
            2508            2673     75.2476E-03     69.9501E-03
            2524            2673     75.2476E-03     69.9501E-03
            2507            2673     75.2476E-03     69.9501E-03
            2523            2673     75.2476E-03     69.9501E-03
            2525            2674     71.5478E-03     67.3302E-03
            2524            2674     71.5478E-03     67.3302E-03
            2508            2674     71.5478E-03     67.3302E-03
            2509            2674     71.5478E-03     67.3302E-03
            2510            2675     68.0130E-03     65.3105E-03
            2525            2675     68.0130E-03     65.3105E-03
            2509            2675     68.0130E-03     65.3105E-03
            2526            2675     68.0130E-03     65.3105E-03
            2511            2676     64.3602E-03     64.7708E-03
            2526            2676     64.3602E-03     64.7708E-03
            2510            2676     64.3602E-03     64.7708E-03
            2527            2676     64.3602E-03     64.7708E-03
            2512            2677     60.6429E-03     65.3760E-03
            2527            2677     60.6429E-03     65.3760E-03
            2528            2677     60.6429E-03     65.3760E-03
            2511            2677     60.6429E-03     65.3760E-03
            2513            2678     32.4422E-03     30.7446E-03
            2530            2678     32.4422E-03     30.7446E-03
            2529            2678     32.4422E-03     30.7446E-03
            2514            2678     32.4422E-03     30.7446E-03
            2515            2679     43.5797E-03     34.8806E-03
            2530            2679     43.5797E-03     34.8806E-03
            2514            2679     43.5797E-03     34.8806E-03
            2531            2679     43.5797E-03     34.8806E-03
            2532            2680     49.9162E-03     42.6702E-03
            2515            2680     49.9162E-03     42.6702E-03
            2516            2680     49.9162E-03     42.6702E-03
            2531            2680     49.9162E-03     42.6702E-03
            2533            2681     52.9967E-03     46.5635E-03
            2516            2681     52.9967E-03     46.5635E-03
            2532            2681     52.9967E-03     46.5635E-03
            2517            2681     52.9967E-03     46.5635E-03
            2518            2682     53.0638E-03     47.2724E-03
            2533            2682     53.0638E-03     47.2724E-03
            2517            2682     53.0638E-03     47.2724E-03
            2534            2682     53.0638E-03     47.2724E-03
            2518            2683     51.9970E-03     46.6536E-03
            2535            2683     51.9970E-03     46.6536E-03
            2534            2683     51.9970E-03     46.6536E-03
            2519            2683     51.9970E-03     46.6536E-03
            2535            2684     50.0384E-03     45.1202E-03
            2520            2684     50.0384E-03     45.1202E-03
            2519            2684     50.0384E-03     45.1202E-03
            2536            2684     50.0384E-03     45.1202E-03
            2520            2685     47.7644E-03     43.2461E-03
            2521            2685     47.7644E-03     43.2461E-03
            2537            2685     47.7644E-03     43.2461E-03
            2536            2685     47.7644E-03     43.2461E-03
            2538            2686     45.3397E-03     41.2729E-03
            2522            2686     45.3397E-03     41.2729E-03
            2537            2686     45.3397E-03     41.2729E-03
            2521            2686     45.3397E-03     41.2729E-03
            2539            2687     42.9234E-03     39.3192E-03
            2522            2687     42.9234E-03     39.3192E-03
            2538            2687     42.9234E-03     39.3192E-03
            2523            2687     42.9234E-03     39.3192E-03
            2540            2688     40.5649E-03     37.4880E-03
            2539            2688     40.5649E-03     37.4880E-03
            2524            2688     40.5649E-03     37.4880E-03
            2523            2688     40.5649E-03     37.4880E-03
            2524            2689     38.3454E-03     35.9167E-03
            2541            2689     38.3454E-03     35.9167E-03
            2525            2689     38.3454E-03     35.9167E-03
            2540            2689     38.3454E-03     35.9167E-03
            2541            2690     36.1951E-03     34.4461E-03
            2542            2690     36.1951E-03     34.4461E-03
            2526            2690     36.1951E-03     34.4461E-03
            2525            2690     36.1951E-03     34.4461E-03
            2527            2691     34.1289E-03     33.7202E-03
            2526            2691     34.1289E-03     33.7202E-03
            2542            2691     34.1289E-03     33.7202E-03
            2543            2691     34.1289E-03     33.7202E-03
            2544            2692     30.8340E-03     34.0700E-03
            2527            2692     30.8340E-03     34.0700E-03
            2528            2692     30.8340E-03     34.0700E-03
            2543            2692     30.8340E-03     34.0700E-03
            2658            2768     363.251E-03     370.859E-03
            2641            2768     363.251E-03     370.859E-03
            2657            2768     363.251E-03     370.859E-03
            2642            2768     363.251E-03     370.859E-03
            2642            2769     341.170E-03     347.671E-03
            2643            2769     341.170E-03     347.671E-03
            2659            2769     341.170E-03     347.671E-03
            2658            2769     341.170E-03     347.671E-03
            2659            2770     316.045E-03     322.538E-03
            2644            2770     316.045E-03     322.538E-03
            2660            2770     316.045E-03     322.538E-03
            2643            2770     316.045E-03     322.538E-03
            2661            2771     291.133E-03     298.285E-03
            2660            2771     291.133E-03     298.285E-03
            2645            2771     291.133E-03     298.285E-03
            2644            2771     291.133E-03     298.285E-03
            2646            2772     266.725E-03     273.178E-03
            2661            2772     266.725E-03     273.178E-03
            2662            2772     266.725E-03     273.178E-03
            2645            2772     266.725E-03     273.178E-03
            2646            2773     241.788E-03     248.851E-03
            2662            2773     241.788E-03     248.851E-03
            2663            2773     241.788E-03     248.851E-03
            2647            2773     241.788E-03     248.851E-03
            2664            2774     217.461E-03     224.121E-03
            2648            2774     217.461E-03     224.121E-03
            2647            2774     217.461E-03     224.121E-03
            2663            2774     217.461E-03     224.121E-03
            2665            2775     192.944E-03     199.900E-03
            2648            2775     192.944E-03     199.900E-03
            2664            2775     192.944E-03     199.900E-03
            2649            2775     192.944E-03     199.900E-03
            2649            2776     168.845E-03     175.679E-03
            2665            2776     168.845E-03     175.679E-03
            2650            2776     168.845E-03     175.679E-03
            2666            2776     168.845E-03     175.679E-03
            2667            2777     144.944E-03     151.899E-03
            2650            2777     144.944E-03     151.899E-03
            2666            2777     144.944E-03     151.899E-03
            2651            2777     144.944E-03     151.899E-03
            2668            2778     121.594E-03     128.572E-03
            2667            2778     121.594E-03     128.572E-03
            2652            2778     121.594E-03     128.572E-03
            2651            2778     121.594E-03     128.572E-03
            2653            2779     99.1264E-03     106.142E-03
            2669            2779     99.1264E-03     106.142E-03
            2652            2779     99.1264E-03     106.142E-03
            2668            2779     99.1264E-03     106.142E-03
            2670            2780     78.4202E-03     85.2234E-03
            2653            2780     78.4202E-03     85.2234E-03
            2654            2780     78.4202E-03     85.2234E-03
            2669            2780     78.4202E-03     85.2234E-03
            2654            2781     61.8991E-03     67.6709E-03
            2671            2781     61.8991E-03     67.6709E-03
            2670            2781     61.8991E-03     67.6709E-03
            2655            2781     61.8991E-03     67.6709E-03
            2672            2782     52.3153E-03     54.1396E-03
            2671            2782     52.3153E-03     54.1396E-03
            2656            2782     52.3153E-03     54.1396E-03
            2655            2782     52.3153E-03     54.1396E-03
            2658            2783     342.889E-03     347.616E-03
            2657            2783     342.889E-03     347.616E-03
            2674            2783     342.889E-03     347.616E-03
            2673            2783     342.889E-03     347.616E-03
            2659            2784     317.038E-03     319.094E-03
            2674            2784     317.038E-03     319.094E-03
            2675            2784     317.038E-03     319.094E-03
            2658            2784     317.038E-03     319.094E-03
            2675            2785     292.714E-03     294.876E-03
            2676            2785     292.714E-03     294.876E-03
            2659            2785     292.714E-03     294.876E-03
            2660            2785     292.714E-03     294.876E-03
            2677            2786     270.488E-03     273.284E-03
            2676            2786     270.488E-03     273.284E-03
            2661            2786     270.488E-03     273.284E-03
            2660            2786     270.488E-03     273.284E-03
            2661            2787     247.968E-03     250.352E-03
            2662            2787     247.968E-03     250.352E-03
            2678            2787     247.968E-03     250.352E-03
            2677            2787     247.968E-03     250.352E-03
            2678            2788     225.074E-03     227.917E-03
            2663            2788     225.074E-03     227.917E-03
            2662            2788     225.074E-03     227.917E-03
            2679            2788     225.074E-03     227.917E-03
            2663            2789     202.672E-03     205.212E-03
            2680            2789     202.672E-03     205.212E-03
            2679            2789     202.672E-03     205.212E-03
            2664            2789     202.672E-03     205.212E-03
            2664            2790     180.104E-03     182.934E-03
            2665            2790     180.104E-03     182.934E-03
            2681            2790     180.104E-03     182.934E-03
            2680            2790     180.104E-03     182.934E-03
            2681            2791     157.940E-03     160.669E-03
            2666            2791     157.940E-03     160.669E-03
            2682            2791     157.940E-03     160.669E-03
            2665            2791     157.940E-03     160.669E-03
            2682            2792     135.950E-03     138.854E-03
            2666            2792     135.950E-03     138.854E-03
            2667            2792     135.950E-03     138.854E-03
            2683            2792     135.950E-03     138.854E-03
            2667            2793     114.518E-03     117.454E-03
            2684            2793     114.518E-03     117.454E-03
            2668            2793     114.518E-03     117.454E-03
            2683            2793     114.518E-03     117.454E-03
            2685            2794     93.8932E-03     97.0176E-03
            2669            2794     93.8932E-03     97.0176E-03
            2668            2794     93.8932E-03     97.0176E-03
            2684            2794     93.8932E-03     97.0176E-03
            2670            2795     74.8224E-03     78.2542E-03
            2686            2795     74.8224E-03     78.2542E-03
            2685            2795     74.8224E-03     78.2542E-03
            2669            2795     74.8224E-03     78.2542E-03
            2686            2796     59.7313E-03     62.4583E-03
            2671            2796     59.7313E-03     62.4583E-03
            2670            2796     59.7313E-03     62.4583E-03
            2687            2796     59.7313E-03     62.4583E-03
            2688            2797     48.3660E-03     47.2401E-03
            2672            2797     48.3660E-03     47.2401E-03
            2687            2797     48.3660E-03     47.2401E-03
            2671            2797     48.3660E-03     47.2401E-03
            2674            2798     319.181E-03     334.556E-03
            2690            2798     319.181E-03     334.556E-03
            2673            2798     319.181E-03     334.556E-03
            2689            2798     319.181E-03     334.556E-03
            2674            2799     283.838E-03     301.620E-03
            2691            2799     283.838E-03     301.620E-03
            2675            2799     283.838E-03     301.620E-03
            2690            2799     283.838E-03     301.620E-03
            2676            2800     260.947E-03     279.007E-03
            2675            2800     260.947E-03     279.007E-03
            2692            2800     260.947E-03     279.007E-03
            2691            2800     260.947E-03     279.007E-03
            2693            2801     240.429E-03     258.275E-03
            2676            2801     240.429E-03     258.275E-03
            2692            2801     240.429E-03     258.275E-03
            2677            2801     240.429E-03     258.275E-03
            2677            2802     219.427E-03     237.198E-03
            2694            2802     219.427E-03     237.198E-03
            2678            2802     219.427E-03     237.198E-03
            2693            2802     219.427E-03     237.198E-03
            2694            2803     198.627E-03     216.515E-03
            2679            2803     198.627E-03     216.515E-03
            2678            2803     198.627E-03     216.515E-03
            2695            2803     198.627E-03     216.515E-03
            2695            2804     178.003E-03     195.738E-03
            2696            2804     178.003E-03     195.738E-03
            2679            2804     178.003E-03     195.738E-03
            2680            2804     178.003E-03     195.738E-03
            2696            2805     157.481E-03     175.231E-03
            2681            2805     157.481E-03     175.231E-03
            2697            2805     157.481E-03     175.231E-03
            2680            2805     157.481E-03     175.231E-03
            2681            2806     137.246E-03     154.791E-03
            2697            2806     137.246E-03     154.791E-03
            2682            2806     137.246E-03     154.791E-03
            2698            2806     137.246E-03     154.791E-03
            2682            2807     117.282E-03     134.671E-03
            2699            2807     117.282E-03     134.671E-03
            2698            2807     117.282E-03     134.671E-03
            2683            2807     117.282E-03     134.671E-03
            2683            2808     97.8933E-03     114.872E-03
            2700            2808     97.8933E-03     114.872E-03
            2684            2808     97.8933E-03     114.872E-03
            2699            2808     97.8933E-03     114.872E-03
            2685            2809     79.3984E-03     95.7494E-03
            2684            2809     79.3984E-03     95.7494E-03
            2701            2809     79.3984E-03     95.7494E-03
            2700            2809     79.3984E-03     95.7494E-03
            2686            2810     62.9135E-03     77.7492E-03
            2702            2810     62.9135E-03     77.7492E-03
            2685            2810     62.9135E-03     77.7492E-03
            2701            2810     62.9135E-03     77.7492E-03
            2703            2811     51.1953E-03     62.5683E-03
            2702            2811     51.1953E-03     62.5683E-03
            2686            2811     51.1953E-03     62.5683E-03
            2687            2811     51.1953E-03     62.5683E-03
            2704            2812     45.9945E-03     48.5941E-03
            2687            2812     45.9945E-03     48.5941E-03
            2688            2812     45.9945E-03     48.5941E-03
            2703            2812     45.9945E-03     48.5941E-03
            2705            2813     300.419E-03     291.401E-03
            2689            2813     300.419E-03     291.401E-03
            2690            2813     300.419E-03     291.401E-03
            2706            2813     300.419E-03     291.401E-03
            2690            2814     294.998E-03     288.533E-03
            2706            2814     294.998E-03     288.533E-03
            2691            2814     294.998E-03     288.533E-03
            2707            2814     294.998E-03     288.533E-03
            2691            2815     274.575E-03     268.180E-03
            2707            2815     274.575E-03     268.180E-03
            2708            2815     274.575E-03     268.180E-03
            2692            2815     274.575E-03     268.180E-03
            2708            2816     254.304E-03     247.644E-03
            2692            2816     254.304E-03     247.644E-03
            2693            2816     254.304E-03     247.644E-03
            2709            2816     254.304E-03     247.644E-03
            2710            2817     233.968E-03     227.525E-03
            2709            2817     233.968E-03     227.525E-03
            2693            2817     233.968E-03     227.525E-03
            2694            2817     233.968E-03     227.525E-03
            2695            2818     213.854E-03     207.359E-03
            2710            2818     213.854E-03     207.359E-03
            2694            2818     213.854E-03     207.359E-03
            2711            2818     213.854E-03     207.359E-03
            2711            2819     193.635E-03     187.312E-03
            2712            2819     193.635E-03     187.312E-03
            2696            2819     193.635E-03     187.312E-03
            2695            2819     193.635E-03     187.312E-03
            2696            2820     173.652E-03     167.354E-03
            2712            2820     173.652E-03     167.354E-03
            2713            2820     173.652E-03     167.354E-03
            2697            2820     173.652E-03     167.354E-03
            2697            2821     153.845E-03     147.748E-03
            2713            2821     153.845E-03     147.748E-03
            2698            2821     153.845E-03     147.748E-03
            2714            2821     153.845E-03     147.748E-03
            2698            2822     134.460E-03     128.545E-03
            2699            2822     134.460E-03     128.545E-03
            2715            2822     134.460E-03     128.545E-03
            2714            2822     134.460E-03     128.545E-03
            2715            2823     115.633E-03     110.101E-03
            2699            2823     115.633E-03     110.101E-03
            2700            2823     115.633E-03     110.101E-03
            2716            2823     115.633E-03     110.101E-03
            2700            2824     97.7438E-03     92.7075E-03
            2716            2824     97.7438E-03     92.7075E-03
            2717            2824     97.7438E-03     92.7075E-03
            2701            2824     97.7438E-03     92.7075E-03
            2717            2825     81.6273E-03     77.1533E-03
            2701            2825     81.6273E-03     77.1533E-03
            2702            2825     81.6273E-03     77.1533E-03
            2718            2825     81.6273E-03     77.1533E-03
            2718            2826     68.1238E-03     65.3069E-03
            2702            2826     68.1238E-03     65.3069E-03
            2719            2826     68.1238E-03     65.3069E-03
            2703            2826     68.1238E-03     65.3069E-03
            2720            2827     58.1412E-03     57.9772E-03
            2704            2827     58.1412E-03     57.9772E-03
            2703            2827     58.1412E-03     57.9772E-03
            2719            2827     58.1412E-03     57.9772E-03
            2916            2952     280.423E-06     301.297E-06
            2931            2952     280.423E-06     301.297E-06
            2932            2952     280.423E-06     301.297E-06
            2915            2952     280.423E-06     301.297E-06
            2917            2953     212.671E-06     237.260E-06
            2932            2953     212.671E-06     237.260E-06
            2933            2953     212.671E-06     237.260E-06
            2916            2953     212.671E-06     237.260E-06
            2918            2954     189.810E-06     214.300E-06
            2934            2954     189.810E-06     214.300E-06
            2933            2954     189.810E-06     214.300E-06
            2917            2954     189.810E-06     214.300E-06
            2919            2955     182.990E-06     206.636E-06
            2918            2955     182.990E-06     206.636E-06
            2934            2955     182.990E-06     206.636E-06
            2935            2955     182.990E-06     206.636E-06
            2936            2956     177.282E-06     199.929E-06
            2919            2956     177.282E-06     199.929E-06
            2920            2956     177.282E-06     199.929E-06
            2935            2956     177.282E-06     199.929E-06
            2920            2957     171.804E-06     193.846E-06
            2921            2957     171.804E-06     193.846E-06
            2937            2957     171.804E-06     193.846E-06
            2936            2957     171.804E-06     193.846E-06
            2937            2958     166.177E-06     187.508E-06
            2921            2958     166.177E-06     187.508E-06
            2922            2958     166.177E-06     187.508E-06
            2938            2958     166.177E-06     187.508E-06
            2938            2959     161.104E-06     181.516E-06
            2922            2959     161.104E-06     181.516E-06
            2923            2959     161.104E-06     181.516E-06
            2939            2959     161.104E-06     181.516E-06
            2924            2960     156.525E-06     175.789E-06
            2923            2960     156.525E-06     175.789E-06
            2939            2960     156.525E-06     175.789E-06
            2940            2960     156.525E-06     175.789E-06
            2925            2961     152.875E-06     170.529E-06
            2924            2961     152.875E-06     170.529E-06
            2940            2961     152.875E-06     170.529E-06
            2941            2961     152.875E-06     170.529E-06
            2941            2962     149.963E-06     165.800E-06
            2926            2962     149.963E-06     165.800E-06
            2942            2962     149.963E-06     165.800E-06
            2925            2962     149.963E-06     165.800E-06
            2926            2963     148.150E-06     161.453E-06
            2927            2963     148.150E-06     161.453E-06
            2942            2963     148.150E-06     161.453E-06
            2943            2963     148.150E-06     161.453E-06
            2927            2964     146.848E-06     157.333E-06
            2943            2964     146.848E-06     157.333E-06
            2928            2964     146.848E-06     157.333E-06
            2944            2964     146.848E-06     157.333E-06
            2944            2965     144.772E-06     156.160E-06
            2929            2965     144.772E-06     156.160E-06
            2945            2965     144.772E-06     156.160E-06
            2928            2965     144.772E-06     156.160E-06
            2945            2966     144.222E-06     155.929E-06
            2929            2966     144.222E-06     155.929E-06
            2946            2966     144.222E-06     155.929E-06
            2930            2966     144.222E-06     155.929E-06
            2932            2967     235.075E-06     239.089E-06
            2948            2967     235.075E-06     239.089E-06
            2931            2967     235.075E-06     239.089E-06
            2947            2967     235.075E-06     239.089E-06
            2949            2968     213.201E-06     225.068E-06
            2948            2968     213.201E-06     225.068E-06
            2932            2968     213.201E-06     225.068E-06
            2933            2968     213.201E-06     225.068E-06
            2933            2969     201.605E-06     216.703E-06
            2949            2969     201.605E-06     216.703E-06
            2950            2969     201.605E-06     216.703E-06
            2934            2969     201.605E-06     216.703E-06
            2935            2970     195.841E-06     210.514E-06
            2934            2970     195.841E-06     210.514E-06
            2950            2970     195.841E-06     210.514E-06
            2951            2970     195.841E-06     210.514E-06
            2935            2971     189.112E-06     202.717E-06
            2951            2971     189.112E-06     202.717E-06
            2936            2971     189.112E-06     202.717E-06
            2952            2971     189.112E-06     202.717E-06
            2936            2972     181.555E-06     195.153E-06
            2953            2972     181.555E-06     195.153E-06
            2937            2972     181.555E-06     195.153E-06
            2952            2972     181.555E-06     195.153E-06
            2937            2973     175.244E-06     188.270E-06
            2953            2973     175.244E-06     188.270E-06
            2954            2973     175.244E-06     188.270E-06
            2938            2973     175.244E-06     188.270E-06
            2938            2974     169.437E-06     182.067E-06
            2954            2974     169.437E-06     182.067E-06
            2939            2974     169.437E-06     182.067E-06
            2955            2974     169.437E-06     182.067E-06
            2939            2975     164.659E-06     176.654E-06
            2940            2975     164.659E-06     176.654E-06
            2956            2975     164.659E-06     176.654E-06
            2955            2975     164.659E-06     176.654E-06
            2941            2976     160.672E-06     171.802E-06
            2956            2976     160.672E-06     171.802E-06
            2957            2976     160.672E-06     171.802E-06
            2940            2976     160.672E-06     171.802E-06
            2942            2977     157.452E-06     167.777E-06
            2941            2977     157.452E-06     167.777E-06
            2958            2977     157.452E-06     167.777E-06
            2957            2977     157.452E-06     167.777E-06
            2942            2978     155.269E-06     164.282E-06
            2959            2978     155.269E-06     164.282E-06
            2943            2978     155.269E-06     164.282E-06
            2958            2978     155.269E-06     164.282E-06
            2959            2979     154.149E-06     161.366E-06
            2943            2979     154.149E-06     161.366E-06
            2960            2979     154.149E-06     161.366E-06
            2944            2979     154.149E-06     161.366E-06
            2961            2980     154.745E-06     158.027E-06
            2945            2980     154.745E-06     158.027E-06
            2960            2980     154.745E-06     158.027E-06
            2944            2980     154.745E-06     158.027E-06
            2961            2981     160.133E-06     152.069E-06
            2945            2981     160.133E-06     152.069E-06
            2962            2981     160.133E-06     152.069E-06
            2946            2981     160.133E-06     152.069E-06
            2948            2982     167.589E-06     174.439E-06
            2963            2982     167.589E-06     174.439E-06
            2947            2982     167.589E-06     174.439E-06
            2964            2982     167.589E-06     174.439E-06
            2949            2983     187.361E-06     197.818E-06
            2964            2983     187.361E-06     197.818E-06
            2965            2983     187.361E-06     197.818E-06
            2948            2983     187.361E-06     197.818E-06
            2949            2984     207.126E-06     213.238E-06
            2965            2984     207.126E-06     213.238E-06
            2966            2984     207.126E-06     213.238E-06
            2950            2984     207.126E-06     213.238E-06
            2951            2985     205.318E-06     209.528E-06
            2966            2985     205.318E-06     209.528E-06
            2967            2985     205.318E-06     209.528E-06
            2950            2985     205.318E-06     209.528E-06
            2967            2986     197.773E-06     202.505E-06
            2968            2986     197.773E-06     202.505E-06
            2951            2986     197.773E-06     202.505E-06
            2952            2986     197.773E-06     202.505E-06
            2953            2987     190.460E-06     194.715E-06
            2969            2987     190.460E-06     194.715E-06
            2968            2987     190.460E-06     194.715E-06
            2952            2987     190.460E-06     194.715E-06
            2969            2988     183.449E-06     187.921E-06
            2970            2988     183.449E-06     187.921E-06
            2953            2988     183.449E-06     187.921E-06
            2954            2988     183.449E-06     187.921E-06
            2954            2989     177.805E-06     182.147E-06
            2970            2989     177.805E-06     182.147E-06
            2955            2989     177.805E-06     182.147E-06
            2971            2989     177.805E-06     182.147E-06
            2955            2990     172.939E-06     177.196E-06
            2956            2990     172.939E-06     177.196E-06
            2972            2990     172.939E-06     177.196E-06
            2971            2990     172.939E-06     177.196E-06
            2972            2991     168.850E-06     173.183E-06
            2973            2991     168.850E-06     173.183E-06
            2956            2991     168.850E-06     173.183E-06
            2957            2991     168.850E-06     173.183E-06
            2974            2992     165.610E-06     169.709E-06
            2957            2992     165.610E-06     169.709E-06
            2958            2992     165.610E-06     169.709E-06
            2973            2992     165.610E-06     169.709E-06
            2974            2993     162.804E-06     167.304E-06
            2958            2993     162.804E-06     167.304E-06
            2975            2993     162.804E-06     167.304E-06
            2959            2993     162.804E-06     167.304E-06
            2959            2994     161.548E-06     165.673E-06
            2976            2994     161.548E-06     165.673E-06
            2960            2994     161.548E-06     165.673E-06
            2975            2994     161.548E-06     165.673E-06
            2960            2995     165.238E-06     160.188E-06
            2976            2995     165.238E-06     160.188E-06
            2977            2995     165.238E-06     160.188E-06
            2961            2995     165.238E-06     160.188E-06
            2977            2996     169.107E-06     151.604E-06
            2961            2996     169.107E-06     151.604E-06
            2962            2996     169.107E-06     151.604E-06
            2978            2996     169.107E-06     151.604E-06
            2980            2997     113.563E-06     114.121E-06
            2964            2997     113.563E-06     114.121E-06
            2979            2997     113.563E-06     114.121E-06
            2963            2997     113.563E-06     114.121E-06
            2981            2998     166.935E-06     167.823E-06
            2980            2998     166.935E-06     167.823E-06
            2964            2998     166.935E-06     167.823E-06
            2965            2998     166.935E-06     167.823E-06
            2981            2999     201.703E-06     196.261E-06
            2966            2999     201.703E-06     196.261E-06
            2965            2999     201.703E-06     196.261E-06
            2982            2999     201.703E-06     196.261E-06
            2967            3000     206.126E-06     200.093E-06
            2982            3000     206.126E-06     200.093E-06
            2983            3000     206.126E-06     200.093E-06
            2966            3000     206.126E-06     200.093E-06
            2983            3001     202.238E-06     196.465E-06
            2984            3001     202.238E-06     196.465E-06
            2967            3001     202.238E-06     196.465E-06
            2968            3001     202.238E-06     196.465E-06
            2969            3002     196.467E-06     191.239E-06
            2968            3002     196.467E-06     191.239E-06
            2984            3002     196.467E-06     191.239E-06
            2985            3002     196.467E-06     191.239E-06
            2985            3003     190.938E-06     186.120E-06
            2969            3003     190.938E-06     186.120E-06
            2986            3003     190.938E-06     186.120E-06
            2970            3003     190.938E-06     186.120E-06
            2970            3004     185.912E-06     181.595E-06
            2987            3004     185.912E-06     181.595E-06
            2986            3004     185.912E-06     181.595E-06
            2971            3004     185.912E-06     181.595E-06
            2987            3005     181.504E-06     177.805E-06
            2971            3005     181.504E-06     177.805E-06
            2972            3005     181.504E-06     177.805E-06
            2988            3005     181.504E-06     177.805E-06
            2988            3006     177.652E-06     174.522E-06
            2973            3006     177.652E-06     174.522E-06
            2972            3006     177.652E-06     174.522E-06
            2989            3006     177.652E-06     174.522E-06
            2990            3007     174.199E-06     172.050E-06
            2989            3007     174.199E-06     172.050E-06
            2974            3007     174.199E-06     172.050E-06
            2973            3007     174.199E-06     172.050E-06
            2974            3008     171.403E-06     170.118E-06
            2990            3008     171.403E-06     170.118E-06
            2975            3008     171.403E-06     170.118E-06
            2991            3008     171.403E-06     170.118E-06
            2976            3009     169.030E-06     169.044E-06
            2992            3009     169.030E-06     169.044E-06
            2975            3009     169.030E-06     169.044E-06
            2991            3009     169.030E-06     169.044E-06
            2976            3010     167.775E-06     168.909E-06
            2993            3010     167.775E-06     168.909E-06
            2992            3010     167.775E-06     168.909E-06
            2977            3010     167.775E-06     168.909E-06
            2993            3011     172.218E-06     165.277E-06
            2977            3011     172.218E-06     165.277E-06
            2994            3011     172.218E-06     165.277E-06
            2978            3011     172.218E-06     165.277E-06
            2980            3012     87.9607E-06     94.1629E-06
            2995            3012     87.9607E-06     94.1629E-06
            2979            3012     87.9607E-06     94.1629E-06
            2996            3012     87.9607E-06     94.1629E-06
            2997            3013     154.161E-06     134.267E-06
            2996            3013     154.161E-06     134.267E-06
            2980            3013     154.161E-06     134.267E-06
            2981            3013     154.161E-06     134.267E-06
            2982            3014     186.810E-06     168.364E-06
            2981            3014     186.810E-06     168.364E-06
            2998            3014     186.810E-06     168.364E-06
            2997            3014     186.810E-06     168.364E-06
            2983            3015     199.895E-06     182.870E-06
            2982            3015     199.895E-06     182.870E-06
            2998            3015     199.895E-06     182.870E-06
            2999            3015     199.895E-06     182.870E-06
            2984            3016     202.831E-06     186.367E-06
            2983            3016     202.831E-06     186.367E-06
            3000            3016     202.831E-06     186.367E-06
            2999            3016     202.831E-06     186.367E-06
            2985            3017     201.045E-06     185.877E-06
            2984            3017     201.045E-06     185.877E-06
            3000            3017     201.045E-06     185.877E-06
            3001            3017     201.045E-06     185.877E-06
            3002            3018     197.997E-06     183.661E-06
            3001            3018     197.997E-06     183.661E-06
            2985            3018     197.997E-06     183.661E-06
            2986            3018     197.997E-06     183.661E-06
            2986            3019     194.294E-06     181.119E-06
            2987            3019     194.294E-06     181.119E-06
            3003            3019     194.294E-06     181.119E-06
            3002            3019     194.294E-06     181.119E-06
            3004            3020     190.575E-06     178.616E-06
            2987            3020     190.575E-06     178.616E-06
            3003            3020     190.575E-06     178.616E-06
            2988            3020     190.575E-06     178.616E-06
            3004            3021     187.019E-06     176.382E-06
            2988            3021     187.019E-06     176.382E-06
            2989            3021     187.019E-06     176.382E-06
            3005            3021     187.019E-06     176.382E-06
            2990            3022     183.582E-06     174.641E-06
            3006            3022     183.582E-06     174.641E-06
            2989            3022     183.582E-06     174.641E-06
            3005            3022     183.582E-06     174.641E-06
            2991            3023     180.581E-06     173.287E-06
            2990            3023     180.581E-06     173.287E-06
            3006            3023     180.581E-06     173.287E-06
            3007            3023     180.581E-06     173.287E-06
            2992            3024     177.257E-06     172.538E-06
            2991            3024     177.257E-06     172.538E-06
            3007            3024     177.257E-06     172.538E-06
            3008            3024     177.257E-06     172.538E-06
            3009            3025     172.485E-06     175.259E-06
            3008            3025     172.485E-06     175.259E-06
            2993            3025     172.485E-06     175.259E-06
            2992            3025     172.485E-06     175.259E-06
            3010            3026     168.557E-06     180.470E-06
            2994            3026     168.557E-06     180.470E-06
            2993            3026     168.557E-06     180.470E-06
            3009            3026     168.557E-06     180.470E-06


  Minimum                            44.7854E-06     76.6045E-06
      At Element                            2995            2995
            Node                             596             596

  Maximum                            425.111E-03     438.456E-03
      At Element                            1737            2641
            Node                             389              20

           Total                         402.401         414.800


