********************************************************************************
Field Output Report, written Fri Feb 15 18:32:55 2019

Source 1
---------

   ODB: C:/Scratch/CRJ700-19.odb
   Step: RotateDown
   Frame: Increment      1: Step Time =    1.000

Loc 1 : Element nodal  values at shell < ALUMINIUM > < 5 section points > from source 1 : SNEG, (fraction = -1.0) ( Average criteria = 75%, Not averaged across region boundaries )
Loc 2 : Element nodal  values at shell < ALUMINIUM > < 5 section points > from source 1 : SPOS, (fraction = 1.0) ( Average criteria = 75%, Not averaged across region boundaries )

Output sorted by column "Node Label".

Field Output reported at element nodes for region: CRJ700-1.Region_1
   Computation algorithm: EXTRAPOLATE_COMPUTE_AVERAGE
   Averaged at nodes
   Averaging regions: ODB_REGIONS

   Element Label      Node Label         S.Mises         S.Mises
                                          @Loc 1          @Loc 2
-----------------------------------------------------------------
             645               2     8.76204E-03     8.86553E-03
            1858               2     8.76204E-03     8.86553E-03
            2023               3     358.217E-03     387.566E-03
            1648               3     358.217E-03     387.566E-03
            1618               5     8.76204E-03     8.86553E-03
             675               5     8.76204E-03     8.86553E-03
            1643               6     22.3425E-15     21.9119E-15
             641               8     25.4363E-03     25.5309E-03
            1622               8     25.4363E-03     25.5309E-03
             671               8     25.4363E-03     25.5309E-03
            1862               8     25.4363E-03     25.5309E-03
             670               9     25.7857E-15     27.6954E-15
            1647              10     19.5500E-15     20.5929E-15
             666              10     19.5500E-15     20.5929E-15
            2725              11     358.217E-03     387.566E-03
             840              11     358.217E-03     387.566E-03
             836              12     82.5265E-03     82.3626E-03
            2721              12     82.5265E-03     82.3626E-03
            1652              12     82.5265E-03     82.3626E-03
            2027              12     82.5265E-03     82.3626E-03
            1668              16     406.956E-03     449.293E-03
            2145              16     406.956E-03     449.293E-03
            1672              19     130.721E-03     129.672E-03
            1833              19     130.721E-03     129.672E-03
            2149              19     130.721E-03     129.672E-03
            2741              19     130.721E-03     129.672E-03
            1837              20     406.956E-03     449.293E-03
            2745              20     406.956E-03     449.293E-03
            2764              21     263.309E-03     297.031E-03
            2165              21     263.309E-03     297.031E-03
            1857              23     263.309E-03     297.031E-03
            2174              23     263.309E-03     297.031E-03
            1853              24     192.681E-03     194.486E-03
            2170              24     192.681E-03     194.486E-03
            2169              24     192.681E-03     194.486E-03
            2768              24     192.681E-03     194.486E-03
            3191              26     21.3131E-03     21.5644E-03
            2224              26     21.3131E-03     21.5644E-03
            2220              27     61.9841E-03     62.2147E-03
            2856              27     61.9841E-03     62.2147E-03
            3187              27     61.9841E-03     62.2147E-03
            2818              27     61.9841E-03     62.2147E-03
            2852              28     21.3131E-03     21.5644E-03
            2814              28     21.3131E-03     21.5644E-03
            2877              31     28.0677E-15     26.6106E-15
            3216              34     38.6599E-15     40.5516E-15
            3212              35     14.7145E-15     15.6152E-15
            2881              35     14.7145E-15     15.6152E-15
            1863              51     16.3476E-03     19.8835E-03
            1858              51     16.3476E-03     19.8835E-03
            1863              52     10.7808E-03     16.8052E-03
            1868              52     10.7808E-03     16.8052E-03
            1873              53     18.1291E-03     19.5959E-03
            1868              53     18.1291E-03     19.5959E-03
            1873              54     40.1107E-03     36.3965E-03
            1878              54     40.1107E-03     36.3965E-03
            1883              55     55.2410E-03     60.2611E-03
            1878              55     55.2410E-03     60.2611E-03
            1888              56     81.9011E-03     77.8989E-03
            1883              56     81.9011E-03     77.8989E-03
            1893              57     102.819E-03     102.256E-03
            1888              57     102.819E-03     102.256E-03
            1898              58     86.5070E-03     95.9449E-03
            1893              58     86.5070E-03     95.9449E-03
            1898              59     79.8323E-03     76.1814E-03
            1903              59     79.8323E-03     76.1814E-03
            1908              60     98.7130E-03     93.4497E-03
            1903              60     98.7130E-03     93.4497E-03
            1913              61     112.699E-03     119.830E-03
            1908              61     112.699E-03     119.830E-03
            1918              62     143.825E-03     137.010E-03
            1913              62     143.825E-03     137.010E-03
            1918              63     166.599E-03     163.977E-03
            1923              63     166.599E-03     163.977E-03
            1928              64     147.792E-03     164.519E-03
            1923              64     147.792E-03     164.519E-03
            1928              65     147.004E-03     139.022E-03
            1933              65     147.004E-03     139.022E-03
            1938              66     160.154E-03     157.931E-03
            1933              66     160.154E-03     157.931E-03
            1943              67     177.072E-03     175.519E-03
            1938              67     177.072E-03     175.519E-03
            1948              68     192.211E-03     199.461E-03
            1943              68     192.211E-03     199.461E-03
            1953              69     224.839E-03     217.010E-03
            1948              69     224.839E-03     217.010E-03
            1953              70     249.560E-03     243.962E-03
            1958              70     249.560E-03     243.962E-03
            1958              71     223.498E-03     248.880E-03
            1963              71     223.498E-03     248.880E-03
            1963              72     226.042E-03     215.325E-03
            1968              72     226.042E-03     215.325E-03
            1968              73     237.128E-03     232.863E-03
            1973              73     237.128E-03     232.863E-03
            1978              74     250.891E-03     250.495E-03
            1973              74     250.891E-03     250.495E-03
            1978              75     266.031E-03     274.439E-03
            1983              75     266.031E-03     274.439E-03
            1988              76     301.820E-03     291.955E-03
            1983              76     301.820E-03     291.955E-03
            1993              77     328.690E-03     320.373E-03
            1988              77     328.690E-03     320.373E-03
            1993              78     297.367E-03     330.548E-03
            1998              78     297.367E-03     330.548E-03
            2003              79     302.831E-03     293.080E-03
            1998              79     302.831E-03     293.080E-03
            2008              80     319.057E-03     302.645E-03
            2003              80     319.057E-03     302.645E-03
            2008              81     317.357E-03     337.552E-03
            2013              81     317.357E-03     337.552E-03
            2013              82     364.176E-03     346.249E-03
            2018              82     364.176E-03     346.249E-03
            2018              83     389.849E-03     381.259E-03
            2023              83     389.849E-03     381.259E-03
            1623             147     10.3637E-15     9.49092E-15
            1618             147     10.3637E-15     9.49092E-15
            1623             148     11.8538E-15     10.3554E-15
            1628             148     11.8538E-15     10.3554E-15
            1633             149     14.2952E-15     11.6232E-15
            1628             149     14.2952E-15     11.6232E-15
            1633             150     17.1414E-15     13.8381E-15
            1638             150     17.1414E-15     13.8381E-15
            1643             151     21.4872E-15     21.2155E-15
            1638             151     21.4872E-15     21.2155E-15
            1861             172     24.4583E-03     24.5533E-03
             641             172     24.4583E-03     24.5533E-03
             642             172     24.4583E-03     24.5533E-03
            1862             172     24.4583E-03     24.5533E-03
             643             173     21.6225E-03     21.7188E-03
            1860             173     21.6225E-03     21.7188E-03
            1861             173     21.6225E-03     21.7188E-03
             642             173     21.6225E-03     21.7188E-03
             643             174     17.2179E-03     17.3163E-03
             644             174     17.2179E-03     17.3163E-03
            1859             174     17.2179E-03     17.3163E-03
            1860             174     17.2179E-03     17.3163E-03
             645             175     11.7165E-03     11.8181E-03
            1859             175     11.7165E-03     11.8181E-03
            1858             175     11.7165E-03     11.8181E-03
             644             175     11.7165E-03     11.8181E-03
             645             176     17.7810E-15     16.5197E-15
             650             176     17.7810E-15     16.5197E-15
             655             177     29.0077E-15     27.4429E-15
             650             177     29.0077E-15     27.4429E-15
             660             178     24.5440E-15     24.2205E-15
             655             178     24.5440E-15     24.2205E-15
             665             179     19.5384E-15     18.5302E-15
             660             179     19.5384E-15     18.5302E-15
             670             180     23.0360E-15     23.0841E-15
             665             180     23.0360E-15     23.0841E-15
             670             181     20.3572E-15     21.6282E-15
             669             181     20.3572E-15     21.6282E-15
             669             182     10.4823E-15     9.96340E-15
             668             182     10.4823E-15     9.96340E-15
             667             183     20.2818E-15     17.9006E-15
             668             183     20.2818E-15     17.9006E-15
             666             184     31.9553E-15     28.9623E-15
             667             184     31.9553E-15     28.9623E-15
            1647             185     17.9287E-15     17.7497E-15
             666             185     17.9287E-15     17.7497E-15
             661             185     17.9287E-15     17.7497E-15
            1642             185     17.9287E-15     17.7497E-15
            1642             186     29.8098E-15     28.8665E-15
             656             186     29.8098E-15     28.8665E-15
            1637             186     29.8098E-15     28.8665E-15
             661             186     29.8098E-15     28.8665E-15
             651             187     31.3470E-15     33.9205E-15
            1632             187     31.3470E-15     33.9205E-15
            1637             187     31.3470E-15     33.9205E-15
             656             187     31.3470E-15     33.9205E-15
             651             188     20.6018E-15     25.1395E-15
            1632             188     20.6018E-15     25.1395E-15
            1627             188     20.6018E-15     25.1395E-15
             646             188     20.6018E-15     25.1395E-15
             646             189     23.7143E-15     27.0372E-15
            1622             189     23.7143E-15     27.0372E-15
            1627             189     23.7143E-15     27.0372E-15
             641             189     23.7143E-15     27.0372E-15
             672             190     24.4583E-03     24.5533E-03
            1622             190     24.4583E-03     24.5533E-03
            1621             190     24.4583E-03     24.5533E-03
             671             190     24.4583E-03     24.5533E-03
            1621             191     21.6225E-03     21.7188E-03
             673             191     21.6225E-03     21.7188E-03
            1620             191     21.6225E-03     21.7188E-03
             672             191     21.6225E-03     21.7188E-03
             673             192     17.2179E-03     17.3163E-03
             674             192     17.2179E-03     17.3163E-03
            1619             192     17.2179E-03     17.3163E-03
            1620             192     17.2179E-03     17.3163E-03
            1619             193     11.7165E-03     11.8181E-03
             675             193     11.7165E-03     11.8181E-03
            1618             193     11.7165E-03     11.8181E-03
             674             193     11.7165E-03     11.8181E-03
             675             194     16.3476E-03     19.8835E-03
             680             194     16.3476E-03     19.8835E-03
             685             195     10.7808E-03     16.8052E-03
             680             195     10.7808E-03     16.8052E-03
             685             196     18.1291E-03     19.5959E-03
             690             196     18.1291E-03     19.5959E-03
             690             197     40.1107E-03     36.3965E-03
             695             197     40.1107E-03     36.3965E-03
             695             198     55.2410E-03     60.2611E-03
             700             198     55.2410E-03     60.2611E-03
             700             199     81.9011E-03     77.8989E-03
             705             199     81.9011E-03     77.8989E-03
             710             200     102.819E-03     102.256E-03
             705             200     102.819E-03     102.256E-03
             710             201     86.5070E-03     95.9449E-03
             715             201     86.5070E-03     95.9449E-03
             720             202     79.8323E-03     76.1814E-03
             715             202     79.8323E-03     76.1814E-03
             725             203     98.7130E-03     93.4497E-03
             720             203     98.7130E-03     93.4497E-03
             725             204     112.699E-03     119.830E-03
             730             204     112.699E-03     119.830E-03
             735             205     143.825E-03     137.010E-03
             730             205     143.825E-03     137.010E-03
             735             206     166.599E-03     163.977E-03
             740             206     166.599E-03     163.977E-03
             745             207     147.792E-03     164.519E-03
             740             207     147.792E-03     164.519E-03
             745             208     147.004E-03     139.022E-03
             750             208     147.004E-03     139.022E-03
             755             209     160.154E-03     157.931E-03
             750             209     160.154E-03     157.931E-03
             760             210     177.072E-03     175.519E-03
             755             210     177.072E-03     175.519E-03
             765             211     192.211E-03     199.461E-03
             760             211     192.211E-03     199.461E-03
             765             212     224.839E-03     217.010E-03
             770             212     224.839E-03     217.010E-03
             770             213     249.560E-03     243.962E-03
             775             213     249.560E-03     243.962E-03
             775             214     223.498E-03     248.880E-03
             780             214     223.498E-03     248.880E-03
             785             215     226.042E-03     215.325E-03
             780             215     226.042E-03     215.325E-03
             790             216     237.128E-03     232.863E-03
             785             216     237.128E-03     232.863E-03
             795             217     250.891E-03     250.495E-03
             790             217     250.891E-03     250.495E-03
             795             218     266.031E-03     274.439E-03
             800             218     266.031E-03     274.439E-03
             805             219     301.820E-03     291.955E-03
             800             219     301.820E-03     291.955E-03
             805             220     328.690E-03     320.373E-03
             810             220     328.690E-03     320.373E-03
             810             221     297.367E-03     330.548E-03
             815             221     297.367E-03     330.548E-03
             820             222     302.831E-03     293.080E-03
             815             222     302.831E-03     293.080E-03
             825             223     319.057E-03     302.645E-03
             820             223     319.057E-03     302.645E-03
             825             224     317.357E-03     337.552E-03
             830             224     317.357E-03     337.552E-03
             835             225     364.176E-03     346.249E-03
             830             225     364.176E-03     346.249E-03
             840             226     389.849E-03     381.259E-03
             835             226     389.849E-03     381.259E-03
             839             227     329.567E-03     367.414E-03
             840             227     329.567E-03     367.414E-03
            2724             227     329.567E-03     367.414E-03
            2725             227     329.567E-03     367.414E-03
            2723             228     271.952E-03     309.823E-03
            2724             228     271.952E-03     309.823E-03
             838             228     271.952E-03     309.823E-03
             839             228     271.952E-03     309.823E-03
             838             229     202.895E-03     223.289E-03
            2723             229     202.895E-03     223.289E-03
             837             229     202.895E-03     223.289E-03
            2722             229     202.895E-03     223.289E-03
            2721             230     122.665E-03     128.277E-03
            2722             230     122.665E-03     128.277E-03
             837             230     122.665E-03     128.277E-03
             836             230     122.665E-03     128.277E-03
             836             231     97.0895E-03     93.4893E-03
            2027             231     97.0895E-03     93.4893E-03
             831             231     97.0895E-03     93.4893E-03
            2022             231     97.0895E-03     93.4893E-03
            2022             232     98.4435E-03     101.174E-03
             826             232     98.4435E-03     101.174E-03
             831             232     98.4435E-03     101.174E-03
            2017             232     98.4435E-03     101.174E-03
             821             233     96.6997E-03     101.014E-03
            2017             233     96.6997E-03     101.014E-03
             826             233     96.6997E-03     101.014E-03
            2012             233     96.6997E-03     101.014E-03
            2007             234     99.5154E-03     94.6480E-03
             816             234     99.5154E-03     94.6480E-03
             821             234     99.5154E-03     94.6480E-03
            2012             234     99.5154E-03     94.6480E-03
             811             235     96.2410E-03     95.7530E-03
            2007             235     96.2410E-03     95.7530E-03
             816             235     96.2410E-03     95.7530E-03
            2002             235     96.2410E-03     95.7530E-03
            1997             236     90.4183E-03     92.4562E-03
             806             236     90.4183E-03     92.4562E-03
             811             236     90.4183E-03     92.4562E-03
            2002             236     90.4183E-03     92.4562E-03
             801             237     92.4325E-03     89.7372E-03
            1992             237     92.4325E-03     89.7372E-03
             806             237     92.4325E-03     89.7372E-03
            1997             237     92.4325E-03     89.7372E-03
            1987             238     93.3992E-03     96.3705E-03
             801             238     93.3992E-03     96.3705E-03
             796             238     93.3992E-03     96.3705E-03
            1992             238     93.3992E-03     96.3705E-03
            1982             239     91.3319E-03     95.3299E-03
             791             239     91.3319E-03     95.3299E-03
            1987             239     91.3319E-03     95.3299E-03
             796             239     91.3319E-03     95.3299E-03
            1977             240     94.1650E-03     91.8264E-03
             786             240     94.1650E-03     91.8264E-03
            1982             240     94.1650E-03     91.8264E-03
             791             240     94.1650E-03     91.8264E-03
            1977             241     92.8430E-03     88.7136E-03
             781             241     92.8430E-03     88.7136E-03
             786             241     92.8430E-03     88.7136E-03
            1972             241     92.8430E-03     88.7136E-03
             776             242     90.3018E-03     89.1329E-03
             781             242     90.3018E-03     89.1329E-03
            1972             242     90.3018E-03     89.1329E-03
            1967             242     90.3018E-03     89.1329E-03
            1967             243     86.8964E-03     87.1680E-03
             776             243     86.8964E-03     87.1680E-03
             771             243     86.8964E-03     87.1680E-03
            1962             243     86.8964E-03     87.1680E-03
             771             244     87.6772E-03     85.4362E-03
            1962             244     87.6772E-03     85.4362E-03
            1957             244     87.6772E-03     85.4362E-03
             766             244     87.6772E-03     85.4362E-03
            1957             245     88.0832E-03     90.3825E-03
            1952             245     88.0832E-03     90.3825E-03
             761             245     88.0832E-03     90.3825E-03
             766             245     88.0832E-03     90.3825E-03
             756             246     86.4195E-03     89.0651E-03
            1947             246     86.4195E-03     89.0651E-03
             761             246     86.4195E-03     89.0651E-03
            1952             246     86.4195E-03     89.0651E-03
            1942             247     88.5611E-03     86.3890E-03
             756             247     88.5611E-03     86.3890E-03
             751             247     88.5611E-03     86.3890E-03
            1947             247     88.5611E-03     86.3890E-03
             751             248     87.6557E-03     84.6044E-03
            1942             248     87.6557E-03     84.6044E-03
            1937             248     87.6557E-03     84.6044E-03
             746             248     87.6557E-03     84.6044E-03
            1932             249     86.0449E-03     85.0045E-03
             746             249     86.0449E-03     85.0045E-03
            1937             249     86.0449E-03     85.0045E-03
             741             249     86.0449E-03     85.0045E-03
             741             250     83.5548E-03     83.1043E-03
            1932             250     83.5548E-03     83.1043E-03
             736             250     83.5548E-03     83.1043E-03
            1927             250     83.5548E-03     83.1043E-03
            1927             251     83.6176E-03     81.6505E-03
             736             251     83.6176E-03     81.6505E-03
            1922             251     83.6176E-03     81.6505E-03
             731             251     83.6176E-03     81.6505E-03
            1917             252     83.8668E-03     84.8093E-03
            1922             252     83.8668E-03     84.8093E-03
             731             252     83.8668E-03     84.8093E-03
             726             252     83.8668E-03     84.8093E-03
             726             253     83.1358E-03     83.7790E-03
            1912             253     83.1358E-03     83.7790E-03
             721             253     83.1358E-03     83.7790E-03
            1917             253     83.1358E-03     83.7790E-03
             721             254     84.2860E-03     82.0816E-03
            1907             254     84.2860E-03     82.0816E-03
            1912             254     84.2860E-03     82.0816E-03
             716             254     84.2860E-03     82.0816E-03
            1907             255     83.2240E-03     82.6080E-03
            1902             255     83.2240E-03     82.6080E-03
             711             255     83.2240E-03     82.6080E-03
             716             255     83.2240E-03     82.6080E-03
            1902             256     81.7448E-03     81.1791E-03
             706             256     81.7448E-03     81.1791E-03
             711             256     81.7448E-03     81.1791E-03
            1897             256     81.7448E-03     81.1791E-03
             706             257     82.4634E-03     80.9721E-03
            1892             257     82.4634E-03     80.9721E-03
            1897             257     82.4634E-03     80.9721E-03
             701             257     82.4634E-03     80.9721E-03
             701             258     82.5066E-03     83.0700E-03
            1887             258     82.5066E-03     83.0700E-03
             696             258     82.5066E-03     83.0700E-03
            1892             258     82.5066E-03     83.0700E-03
            1882             259     81.7620E-03     82.0089E-03
            1887             259     81.7620E-03     82.0089E-03
             696             259     81.7620E-03     82.0089E-03
             691             259     81.7620E-03     82.0089E-03
            1877             260     82.3479E-03     81.2671E-03
            1882             260     82.3479E-03     81.2671E-03
             686             260     82.3479E-03     81.2671E-03
             691             260     82.3479E-03     81.2671E-03
             686             261     82.3872E-03     81.4917E-03
            1872             261     82.3872E-03     81.4917E-03
             681             261     82.3872E-03     81.4917E-03
            1877             261     82.3872E-03     81.4917E-03
             676             262     82.0097E-03     80.8621E-03
            1872             262     82.0097E-03     80.8621E-03
             681             262     82.0097E-03     80.8621E-03
            1867             262     82.0097E-03     80.8621E-03
             676             263     66.2210E-03     65.8215E-03
             671             263     66.2210E-03     65.8215E-03
            1867             263     66.2210E-03     65.8215E-03
            1862             263     66.2210E-03     65.8215E-03
            1648             314     347.166E-03     359.708E-03
            1653             314     347.166E-03     359.708E-03
            1653             315     371.476E-03     373.146E-03
            1658             315     371.476E-03     373.146E-03
            1663             316     415.295E-03     383.770E-03
            1658             316     415.295E-03     383.770E-03
            1663             317     427.342E-03     427.282E-03
            1668             317     427.342E-03     427.282E-03
            1646             358     21.2892E-15     24.1910E-15
            1647             358     21.2892E-15     24.1910E-15
            1646             359     23.7866E-15     24.9103E-15
            1645             359     23.7866E-15     24.9103E-15
            1644             360     15.1152E-15     19.3954E-15
            1645             360     15.1152E-15     19.3954E-15
            1643             361     18.9305E-15     22.2837E-15
            1644             361     18.9305E-15     22.2837E-15
            2023             362     329.567E-03     367.414E-03
            1649             362     329.567E-03     367.414E-03
            2024             362     329.567E-03     367.414E-03
            1648             362     329.567E-03     367.414E-03
            1650             363     271.952E-03     309.823E-03
            2025             363     271.952E-03     309.823E-03
            1649             363     271.952E-03     309.823E-03
            2024             363     271.952E-03     309.823E-03
            2026             364     202.895E-03     223.289E-03
            1650             364     202.895E-03     223.289E-03
            1651             364     202.895E-03     223.289E-03
            2025             364     202.895E-03     223.289E-03
            2027             365     122.665E-03     128.277E-03
            1651             365     122.665E-03     128.277E-03
            1652             365     122.665E-03     128.277E-03
            2026             365     122.665E-03     128.277E-03
            2726             366     88.0182E-03     91.9008E-03
            1652             366     88.0182E-03     91.9008E-03
            1657             366     88.0182E-03     91.9008E-03
            2721             366     88.0182E-03     91.9008E-03
            2731             367     99.3292E-03     105.194E-03
            1662             367     99.3292E-03     105.194E-03
            2726             367     99.3292E-03     105.194E-03
            1657             367     99.3292E-03     105.194E-03
            1667             368     104.601E-03     102.933E-03
            1662             368     104.601E-03     102.933E-03
            2736             368     104.601E-03     102.933E-03
            2731             368     104.601E-03     102.933E-03
            2741             369     103.158E-03     98.8645E-03
            1672             369     103.158E-03     98.8645E-03
            2736             369     103.158E-03     98.8645E-03
            1667             369     103.158E-03     98.8645E-03
            2148             370     165.851E-03     173.367E-03
            1672             370     165.851E-03     173.367E-03
            1671             370     165.851E-03     173.367E-03
            2149             370     165.851E-03     173.367E-03
            2147             371     239.737E-03     264.490E-03
            1671             371     239.737E-03     264.490E-03
            2148             371     239.737E-03     264.490E-03
            1670             371     239.737E-03     264.490E-03
            1670             372     306.184E-03     349.713E-03
            2146             372     306.184E-03     349.713E-03
            2147             372     306.184E-03     349.713E-03
            1669             372     306.184E-03     349.713E-03
            2145             373     370.415E-03     418.401E-03
            1668             373     370.415E-03     418.401E-03
            1669             373     370.415E-03     418.401E-03
            2146             373     370.415E-03     418.401E-03
            2740             389     427.342E-03     427.282E-03
            2745             389     427.342E-03     427.282E-03
            2735             390     415.295E-03     383.770E-03
            2740             390     415.295E-03     383.770E-03
            2735             391     371.476E-03     373.146E-03
            2730             391     371.476E-03     373.146E-03
            2725             392     347.166E-03     359.708E-03
            2730             392     347.166E-03     359.708E-03
            2145             393     370.659E-03     376.594E-03
            2150             393     370.659E-03     376.594E-03
            2155             394     353.041E-03     370.727E-03
            2150             394     353.041E-03     370.727E-03
            2160             395     358.579E-03     354.375E-03
            2155             395     358.579E-03     354.375E-03
            2165             396     302.395E-03     272.354E-03
            2160             396     302.395E-03     272.354E-03
            2741             416     165.851E-03     173.367E-03
            2742             416     165.851E-03     173.367E-03
            1834             416     165.851E-03     173.367E-03
            1833             416     165.851E-03     173.367E-03
            1834             417     239.737E-03     264.490E-03
            1835             417     239.737E-03     264.490E-03
            2743             417     239.737E-03     264.490E-03
            2742             417     239.737E-03     264.490E-03
            2744             418     306.184E-03     349.713E-03
            2743             418     306.184E-03     349.713E-03
            1836             418     306.184E-03     349.713E-03
            1835             418     306.184E-03     349.713E-03
            1837             419     370.415E-03     418.401E-03
            1836             419     370.415E-03     418.401E-03
            2744             419     370.415E-03     418.401E-03
            2745             419     370.415E-03     418.401E-03
            1837             420     370.659E-03     376.594E-03
            1842             420     370.659E-03     376.594E-03
            1842             421     353.041E-03     370.727E-03
            1847             421     353.041E-03     370.727E-03
            1852             422     358.579E-03     354.375E-03
            1847             422     358.579E-03     354.375E-03
            1852             423     302.395E-03     272.354E-03
            1857             423     302.395E-03     272.354E-03
            1856             424     246.326E-03     291.964E-03
            1857             424     246.326E-03     291.964E-03
            2174             424     246.326E-03     291.964E-03
            2173             424     246.326E-03     291.964E-03
            2172             425     225.570E-03     269.874E-03
            2173             425     225.570E-03     269.874E-03
            1855             425     225.570E-03     269.874E-03
            1856             425     225.570E-03     269.874E-03
            2171             426     212.527E-03     234.011E-03
            1854             426     212.527E-03     234.011E-03
            2172             426     212.527E-03     234.011E-03
            1855             426     212.527E-03     234.011E-03
            1854             427     197.968E-03     204.829E-03
            2171             427     197.968E-03     204.829E-03
            1853             427     197.968E-03     204.829E-03
            2170             427     197.968E-03     204.829E-03
            2164             428     198.716E-03     200.099E-03
            1848             428     198.716E-03     200.099E-03
            1853             428     198.716E-03     200.099E-03
            2169             428     198.716E-03     200.099E-03
            2164             429     201.034E-03     193.466E-03
            2159             429     201.034E-03     193.466E-03
            1848             429     201.034E-03     193.466E-03
            1843             429     201.034E-03     193.466E-03
            1843             430     213.144E-03     208.145E-03
            1838             430     213.144E-03     208.145E-03
            2159             430     213.144E-03     208.145E-03
            2154             430     213.144E-03     208.145E-03
            2149             431     198.366E-03     196.261E-03
            2154             431     198.366E-03     196.261E-03
            1833             431     198.366E-03     196.261E-03
            1838             431     198.366E-03     196.261E-03
            2168             440     197.968E-03     204.829E-03
            2767             440     197.968E-03     204.829E-03
            2169             440     197.968E-03     204.829E-03
            2768             440     197.968E-03     204.829E-03
            2168             441     212.527E-03     234.011E-03
            2767             441     212.527E-03     234.011E-03
            2167             441     212.527E-03     234.011E-03
            2766             441     212.527E-03     234.011E-03
            2765             442     225.570E-03     269.874E-03
            2167             442     225.570E-03     269.874E-03
            2166             442     225.570E-03     269.874E-03
            2766             442     225.570E-03     269.874E-03
            2166             443     246.326E-03     291.964E-03
            2165             443     246.326E-03     291.964E-03
            2764             443     246.326E-03     291.964E-03
            2765             443     246.326E-03     291.964E-03
            2174             444     273.227E-03     272.521E-03
            2179             444     273.227E-03     272.521E-03
            2179             445     222.777E-03     193.916E-03
            2184             445     222.777E-03     193.916E-03
            2189             446     209.365E-03     237.698E-03
            2184             446     209.365E-03     237.698E-03
            2194             447     245.614E-03     244.516E-03
            2189             447     245.614E-03     244.516E-03
            2194             448     196.041E-03     185.825E-03
            2199             448     196.041E-03     185.825E-03
            2204             449     131.596E-03     143.849E-03
            2199             449     131.596E-03     143.849E-03
            2204             450     95.2300E-03     86.2945E-03
            2209             450     95.2300E-03     86.2945E-03
            2214             451     42.5698E-03     46.0406E-03
            2209             451     42.5698E-03     46.0406E-03
            2219             452     25.3554E-03     40.6715E-03
            2214             452     25.3554E-03     40.6715E-03
            2224             453     39.5412E-03     48.6319E-03
            2219             453     39.5412E-03     48.6319E-03
            3190             454     28.5226E-03     28.7694E-03
            2224             454     28.5226E-03     28.7694E-03
            3191             454     28.5226E-03     28.7694E-03
            2223             454     28.5226E-03     28.7694E-03
            2222             455     41.9437E-03     42.1830E-03
            3190             455     41.9437E-03     42.1830E-03
            2223             455     41.9437E-03     42.1830E-03
            3189             455     41.9437E-03     42.1830E-03
            2222             456     52.6849E-03     52.9193E-03
            2221             456     52.6849E-03     52.9193E-03
            3188             456     52.6849E-03     52.9193E-03
            3189             456     52.6849E-03     52.9193E-03
            3188             457     59.5994E-03     59.8310E-03
            2221             457     59.5994E-03     59.8310E-03
            3187             457     59.5994E-03     59.8310E-03
            2220             457     59.5994E-03     59.8310E-03
            2818             458     161.261E-03     160.345E-03
            2813             458     161.261E-03     160.345E-03
            2215             458     161.261E-03     160.345E-03
            2220             458     161.261E-03     160.345E-03
            2210             459     199.654E-03     196.966E-03
            2813             459     199.654E-03     196.966E-03
            2808             459     199.654E-03     196.966E-03
            2215             459     199.654E-03     196.966E-03
            2803             460     200.651E-03     198.496E-03
            2205             460     200.651E-03     198.496E-03
            2210             460     200.651E-03     198.496E-03
            2808             460     200.651E-03     198.496E-03
            2200             461     200.504E-03     197.932E-03
            2205             461     200.504E-03     197.932E-03
            2798             461     200.504E-03     197.932E-03
            2803             461     200.504E-03     197.932E-03
            2793             462     199.083E-03     199.670E-03
            2798             462     199.083E-03     199.670E-03
            2195             462     199.083E-03     199.670E-03
            2200             462     199.083E-03     199.670E-03
            2788             463     200.877E-03     202.062E-03
            2195             463     200.877E-03     202.062E-03
            2190             463     200.877E-03     202.062E-03
            2793             463     200.877E-03     202.062E-03
            2783             464     200.624E-03     196.943E-03
            2190             464     200.624E-03     196.943E-03
            2788             464     200.624E-03     196.943E-03
            2185             464     200.624E-03     196.943E-03
            2778             465     193.543E-03     195.402E-03
            2783             465     193.543E-03     195.402E-03
            2180             465     193.543E-03     195.402E-03
            2185             465     193.543E-03     195.402E-03
            2180             466     195.191E-03     195.864E-03
            2175             466     195.191E-03     195.864E-03
            2778             466     195.191E-03     195.864E-03
            2773             466     195.191E-03     195.864E-03
            2773             467     196.856E-03     189.930E-03
            2175             467     196.856E-03     189.930E-03
            2768             467     196.856E-03     189.930E-03
            2170             467     196.856E-03     189.930E-03
            2769             470     273.227E-03     272.521E-03
            2764             470     273.227E-03     272.521E-03
            2769             471     222.777E-03     193.916E-03
            2774             471     222.777E-03     193.916E-03
            2774             472     209.365E-03     237.698E-03
            2779             472     209.365E-03     237.698E-03
            2779             473     245.614E-03     244.516E-03
            2784             473     245.614E-03     244.516E-03
            2789             474     196.041E-03     185.825E-03
            2784             474     196.041E-03     185.825E-03
            2789             475     131.596E-03     143.849E-03
            2794             475     131.596E-03     143.849E-03
            2799             476     95.2300E-03     86.2945E-03
            2794             476     95.2300E-03     86.2945E-03
            2799             477     42.5698E-03     46.0406E-03
            2804             477     42.5698E-03     46.0406E-03
            2809             478     25.3554E-03     40.6715E-03
            2804             478     25.3554E-03     40.6715E-03
            2809             479     39.5412E-03     48.6319E-03
            2814             479     39.5412E-03     48.6319E-03
            2857             562     30.4079E-15     30.8553E-15
            2852             562     30.4079E-15     30.8553E-15
            2857             563     28.1073E-15     28.0905E-15
            2862             563     28.1073E-15     28.0905E-15
            2867             564     29.6239E-15     30.2698E-15
            2862             564     29.6239E-15     30.2698E-15
            2872             565     32.1829E-15     31.9691E-15
            2867             565     32.1829E-15     31.9691E-15
            2872             566     27.7629E-15     26.1004E-15
            2877             566     27.7629E-15     26.1004E-15
            3211             596     27.1766E-15     26.0853E-15
            3216             596     27.1766E-15     26.0853E-15
            3206             597     13.3405E-15     11.8682E-15
            3211             597     13.3405E-15     11.8682E-15
            3206             598     11.8832E-15     10.0711E-15
            3201             598     11.8832E-15     10.0711E-15
            3196             599     21.2952E-15     19.4570E-15
            3201             599     21.2952E-15     19.4570E-15
            3196             600     33.8405E-15     32.0005E-15
            3191             600     33.8405E-15     32.0005E-15
            2817             601     59.5994E-03     59.8310E-03
            2856             601     59.5994E-03     59.8310E-03
            2855             601     59.5994E-03     59.8310E-03
            2818             601     59.5994E-03     59.8310E-03
            2854             602     52.6849E-03     52.9193E-03
            2816             602     52.6849E-03     52.9193E-03
            2817             602     52.6849E-03     52.9193E-03
            2855             602     52.6849E-03     52.9193E-03
            2853             603     41.9437E-03     42.1830E-03
            2816             603     41.9437E-03     42.1830E-03
            2854             603     41.9437E-03     42.1830E-03
            2815             603     41.9437E-03     42.1830E-03
            2852             604     28.5226E-03     28.7694E-03
            2815             604     28.5226E-03     28.7694E-03
            2814             604     28.5226E-03     28.7694E-03
            2853             604     28.5226E-03     28.7694E-03
            3192             607     12.1220E-15     13.0553E-15
            2861             607     12.1220E-15     13.0553E-15
            3187             607     12.1220E-15     13.0553E-15
            2856             607     12.1220E-15     13.0553E-15
            2866             608     14.5734E-15     15.8579E-15
            3197             608     14.5734E-15     15.8579E-15
            3192             608     14.5734E-15     15.8579E-15
            2861             608     14.5734E-15     15.8579E-15
            3202             609     15.1026E-15     13.7455E-15
            2871             609     15.1026E-15     13.7455E-15
            2866             609     15.1026E-15     13.7455E-15
            3197             609     15.1026E-15     13.7455E-15
            2871             610     8.57721E-15     7.39868E-15
            3202             610     8.57721E-15     7.39868E-15
            3207             610     8.57721E-15     7.39868E-15
            2876             610     8.57721E-15     7.39868E-15
            2876             611     10.5420E-15     10.8281E-15
            3212             611     10.5420E-15     10.8281E-15
            3207             611     10.5420E-15     10.8281E-15
            2881             611     10.5420E-15     10.8281E-15
            2880             612     17.3583E-15     19.0356E-15
            2881             612     17.3583E-15     19.0356E-15
            2880             613     24.4415E-15     24.0122E-15
            2879             613     24.4415E-15     24.0122E-15
            2879             614     33.9911E-15     30.9067E-15
            2878             614     33.9911E-15     30.9067E-15
            2877             615     34.0401E-15     31.4874E-15
            2878             615     34.0401E-15     31.4874E-15
            3216             631     29.0888E-15     29.2949E-15
            3215             631     29.0888E-15     29.2949E-15
            3215             632     18.8948E-15     25.0280E-15
            3214             632     18.8948E-15     25.0280E-15
            3213             633     17.4532E-15     30.7544E-15
            3214             633     17.4532E-15     30.7544E-15
            3213             634     16.1300E-15     22.6128E-15
            3212             634     16.1300E-15     22.6128E-15
             647            1205     24.9825E-15     25.0628E-15
             641            1205     24.9825E-15     25.0628E-15
             642            1205     24.9825E-15     25.0628E-15
             646            1205     24.9825E-15     25.0628E-15
             648            1206     13.5510E-15     13.1575E-15
             647            1206     13.5510E-15     13.1575E-15
             643            1206     13.5510E-15     13.1575E-15
             642            1206     13.5510E-15     13.1575E-15
             649            1207     9.36833E-15     10.9117E-15
             648            1207     9.36833E-15     10.9117E-15
             643            1207     9.36833E-15     10.9117E-15
             644            1207     9.36833E-15     10.9117E-15
             645            1208     14.7049E-15     15.1105E-15
             650            1208     14.7049E-15     15.1105E-15
             644            1208     14.7049E-15     15.1105E-15
             649            1208     14.7049E-15     15.1105E-15
             646            1209     19.6112E-15     21.9606E-15
             651            1209     19.6112E-15     21.9606E-15
             647            1209     19.6112E-15     21.9606E-15
             652            1209     19.6112E-15     21.9606E-15
             648            1210     12.1313E-15     13.0637E-15
             652            1210     12.1313E-15     13.0637E-15
             653            1210     12.1313E-15     13.0637E-15
             647            1210     12.1313E-15     13.0637E-15
             654            1211     14.2923E-15     15.1174E-15
             648            1211     14.2923E-15     15.1174E-15
             649            1211     14.2923E-15     15.1174E-15
             653            1211     14.2923E-15     15.1174E-15
             649            1212     25.6942E-15     25.0620E-15
             654            1212     25.6942E-15     25.0620E-15
             650            1212     25.6942E-15     25.0620E-15
             655            1212     25.6942E-15     25.0620E-15
             657            1213     22.5786E-15     25.4750E-15
             656            1213     22.5786E-15     25.4750E-15
             652            1213     22.5786E-15     25.4750E-15
             651            1213     22.5786E-15     25.4750E-15
             657            1214     14.2582E-15     13.2770E-15
             658            1214     14.2582E-15     13.2770E-15
             653            1214     14.2582E-15     13.2770E-15
             652            1214     14.2582E-15     13.2770E-15
             653            1215     24.6288E-15     22.9034E-15
             659            1215     24.6288E-15     22.9034E-15
             658            1215     24.6288E-15     22.9034E-15
             654            1215     24.6288E-15     22.9034E-15
             659            1216     28.6980E-15     28.3884E-15
             654            1216     28.6980E-15     28.3884E-15
             660            1216     28.6980E-15     28.3884E-15
             655            1216     28.6980E-15     28.3884E-15
             661            1217     24.6910E-15     26.1569E-15
             662            1217     24.6910E-15     26.1569E-15
             657            1217     24.6910E-15     26.1569E-15
             656            1217     24.6910E-15     26.1569E-15
             657            1218     16.9336E-15     16.2693E-15
             658            1218     16.9336E-15     16.2693E-15
             663            1218     16.9336E-15     16.2693E-15
             662            1218     16.9336E-15     16.2693E-15
             658            1219     28.0723E-15     27.6906E-15
             663            1219     28.0723E-15     27.6906E-15
             664            1219     28.0723E-15     27.6906E-15
             659            1219     28.0723E-15     27.6906E-15
             665            1220     25.8651E-15     27.0287E-15
             660            1220     25.8651E-15     27.0287E-15
             664            1220     25.8651E-15     27.0287E-15
             659            1220     25.8651E-15     27.0287E-15
             661            1221     26.4109E-15     25.5087E-15
             667            1221     26.4109E-15     25.5087E-15
             666            1221     26.4109E-15     25.5087E-15
             662            1221     26.4109E-15     25.5087E-15
             662            1222     19.4712E-15     18.7030E-15
             667            1222     19.4712E-15     18.7030E-15
             663            1222     19.4712E-15     18.7030E-15
             668            1222     19.4712E-15     18.7030E-15
             669            1223     20.3203E-15     20.1221E-15
             663            1223     20.3203E-15     20.1221E-15
             664            1223     20.3203E-15     20.1221E-15
             668            1223     20.3203E-15     20.1221E-15
             664            1224     24.1948E-15     25.0150E-15
             670            1224     24.1948E-15     25.0150E-15
             665            1224     24.1948E-15     25.0150E-15
             669            1224     24.1948E-15     25.0150E-15
             672            1225     62.9719E-03     62.6198E-03
             677            1225     62.9719E-03     62.6198E-03
             671            1225     62.9719E-03     62.6198E-03
             676            1225     62.9719E-03     62.6198E-03
             673            1226     53.4576E-03     53.5412E-03
             672            1226     53.4576E-03     53.5412E-03
             677            1226     53.4576E-03     53.5412E-03
             678            1226     53.4576E-03     53.5412E-03
             678            1227     40.4512E-03     40.7677E-03
             673            1227     40.4512E-03     40.7677E-03
             679            1227     40.4512E-03     40.7677E-03
             674            1227     40.4512E-03     40.7677E-03
             679            1228     25.0289E-03     26.8773E-03
             675            1228     25.0289E-03     26.8773E-03
             674            1228     25.0289E-03     26.8773E-03
             680            1228     25.0289E-03     26.8773E-03
             676            1229     77.4550E-03     76.5995E-03
             677            1229     77.4550E-03     76.5995E-03
             681            1229     77.4550E-03     76.5995E-03
             682            1229     77.4550E-03     76.5995E-03
             682            1230     63.9287E-03     64.8773E-03
             677            1230     63.9287E-03     64.8773E-03
             683            1230     63.9287E-03     64.8773E-03
             678            1230     63.9287E-03     64.8773E-03
             683            1231     46.5419E-03     48.2320E-03
             684            1231     46.5419E-03     48.2320E-03
             678            1231     46.5419E-03     48.2320E-03
             679            1231     46.5419E-03     48.2320E-03
             680            1232     24.4538E-03     27.9257E-03
             685            1232     24.4538E-03     27.9257E-03
             679            1232     24.4538E-03     27.9257E-03
             684            1232     24.4538E-03     27.9257E-03
             681            1233     77.9248E-03     77.6403E-03
             687            1233     77.9248E-03     77.6403E-03
             686            1233     77.9248E-03     77.6403E-03
             682            1233     77.9248E-03     77.6403E-03
             682            1234     66.1315E-03     67.3806E-03
             688            1234     66.1315E-03     67.3806E-03
             683            1234     66.1315E-03     67.3806E-03
             687            1234     66.1315E-03     67.3806E-03
             688            1235     49.2454E-03     50.6185E-03
             683            1235     49.2454E-03     50.6185E-03
             684            1235     49.2454E-03     50.6185E-03
             689            1235     49.2454E-03     50.6185E-03
             690            1236     28.9097E-03     29.9303E-03
             684            1236     28.9097E-03     29.9303E-03
             689            1236     28.9097E-03     29.9303E-03
             685            1236     28.9097E-03     29.9303E-03
             686            1237     78.7489E-03     78.4671E-03
             687            1237     78.7489E-03     78.4671E-03
             691            1237     78.7489E-03     78.4671E-03
             692            1237     78.7489E-03     78.4671E-03
             688            1238     69.7434E-03     69.3741E-03
             687            1238     69.7434E-03     69.3741E-03
             692            1238     69.7434E-03     69.3741E-03
             693            1238     69.7434E-03     69.3741E-03
             688            1239     56.1473E-03     54.1069E-03
             693            1239     56.1473E-03     54.1069E-03
             689            1239     56.1473E-03     54.1069E-03
             694            1239     56.1473E-03     54.1069E-03
             689            1240     44.0342E-03     40.7646E-03
             695            1240     44.0342E-03     40.7646E-03
             690            1240     44.0342E-03     40.7646E-03
             694            1240     44.0342E-03     40.7646E-03
             696            1241     79.2922E-03     80.2191E-03
             692            1241     79.2922E-03     80.2191E-03
             697            1241     79.2922E-03     80.2191E-03
             691            1241     79.2922E-03     80.2191E-03
             692            1242     72.2406E-03     74.5732E-03
             697            1242     72.2406E-03     74.5732E-03
             693            1242     72.2406E-03     74.5732E-03
             698            1242     72.2406E-03     74.5732E-03
             694            1243     61.6185E-03     66.7028E-03
             698            1243     61.6185E-03     66.7028E-03
             699            1243     61.6185E-03     66.7028E-03
             693            1243     61.6185E-03     66.7028E-03
             694            1244     55.4096E-03     61.4748E-03
             699            1244     55.4096E-03     61.4748E-03
             695            1244     55.4096E-03     61.4748E-03
             700            1244     55.4096E-03     61.4748E-03
             696            1245     82.7360E-03     81.6947E-03
             697            1245     82.7360E-03     81.6947E-03
             702            1245     82.7360E-03     81.6947E-03
             701            1245     82.7360E-03     81.6947E-03
             698            1246     81.3665E-03     77.5326E-03
             697            1246     81.3665E-03     77.5326E-03
             702            1246     81.3665E-03     77.5326E-03
             703            1246     81.3665E-03     77.5326E-03
             698            1247     79.0783E-03     74.7815E-03
             703            1247     79.0783E-03     74.7815E-03
             704            1247     79.0783E-03     74.7815E-03
             699            1247     79.0783E-03     74.7815E-03
             705            1248     80.1451E-03     76.3580E-03
             699            1248     80.1451E-03     76.3580E-03
             700            1248     80.1451E-03     76.3580E-03
             704            1248     80.1451E-03     76.3580E-03
             702            1249     83.5891E-03     81.3382E-03
             701            1249     83.5891E-03     81.3382E-03
             706            1249     83.5891E-03     81.3382E-03
             707            1249     83.5891E-03     81.3382E-03
             708            1250     84.5114E-03     81.5972E-03
             703            1250     84.5114E-03     81.5972E-03
             707            1250     84.5114E-03     81.5972E-03
             702            1250     84.5114E-03     81.5972E-03
             703            1251     85.8449E-03     84.7732E-03
             708            1251     85.8449E-03     84.7732E-03
             709            1251     85.8449E-03     84.7732E-03
             704            1251     85.8449E-03     84.7732E-03
             704            1252     95.1003E-03     95.1560E-03
             709            1252     95.1003E-03     95.1560E-03
             710            1252     95.1003E-03     95.1560E-03
             705            1252     95.1003E-03     95.1560E-03
             711            1253     81.0453E-03     81.5019E-03
             707            1253     81.0453E-03     81.5019E-03
             712            1253     81.0453E-03     81.5019E-03
             706            1253     81.0453E-03     81.5019E-03
             712            1254     78.6941E-03     84.6376E-03
             707            1254     78.6941E-03     84.6376E-03
             708            1254     78.6941E-03     84.6376E-03
             713            1254     78.6941E-03     84.6376E-03
             714            1255     78.1939E-03     91.9162E-03
             713            1255     78.1939E-03     91.9162E-03
             709            1255     78.1939E-03     91.9162E-03
             708            1255     78.1939E-03     91.9162E-03
             709            1256     82.9262E-03     96.1635E-03
             715            1256     82.9262E-03     96.1635E-03
             710            1256     82.9262E-03     96.1635E-03
             714            1256     82.9262E-03     96.1635E-03
             717            1257     82.9210E-03     82.5244E-03
             716            1257     82.9210E-03     82.5244E-03
             711            1257     82.9210E-03     82.5244E-03
             712            1257     82.9210E-03     82.5244E-03
             712            1258     84.0733E-03     84.3915E-03
             718            1258     84.0733E-03     84.3915E-03
             717            1258     84.0733E-03     84.3915E-03
             713            1258     84.0733E-03     84.3915E-03
             718            1259     88.0357E-03     89.0840E-03
             713            1259     88.0357E-03     89.0840E-03
             719            1259     88.0357E-03     89.0840E-03
             714            1259     88.0357E-03     89.0840E-03
             715            1260     85.1875E-03     84.0037E-03
             720            1260     85.1875E-03     84.0037E-03
             719            1260     85.1875E-03     84.0037E-03
             714            1260     85.1875E-03     84.0037E-03
             717            1261     85.7144E-03     84.3854E-03
             716            1261     85.7144E-03     84.3854E-03
             722            1261     85.7144E-03     84.3854E-03
             721            1261     85.7144E-03     84.3854E-03
             723            1262     91.1486E-03     89.7637E-03
             717            1262     91.1486E-03     89.7637E-03
             722            1262     91.1486E-03     89.7637E-03
             718            1262     91.1486E-03     89.7637E-03
             718            1263     96.4817E-03     94.5461E-03
             724            1263     96.4817E-03     94.5461E-03
             723            1263     96.4817E-03     94.5461E-03
             719            1263     96.4817E-03     94.5461E-03
             720            1264     98.2610E-03     94.8519E-03
             725            1264     98.2610E-03     94.8519E-03
             724            1264     98.2610E-03     94.8519E-03
             719            1264     98.2610E-03     94.8519E-03
             721            1265     86.5231E-03     88.6422E-03
             722            1265     86.5231E-03     88.6422E-03
             726            1265     86.5231E-03     88.6422E-03
             727            1265     86.5231E-03     88.6422E-03
             722            1266     93.7202E-03     99.2068E-03
             727            1266     93.7202E-03     99.2068E-03
             723            1266     93.7202E-03     99.2068E-03
             728            1266     93.7202E-03     99.2068E-03
             723            1267     98.8989E-03     109.722E-03
             724            1267     98.8989E-03     109.722E-03
             728            1267     98.8989E-03     109.722E-03
             729            1267     98.8989E-03     109.722E-03
             725            1268     106.483E-03     117.183E-03
             724            1268     106.483E-03     117.183E-03
             730            1268     106.483E-03     117.183E-03
             729            1268     106.483E-03     117.183E-03
             727            1269     92.0648E-03     90.7691E-03
             726            1269     92.0648E-03     90.7691E-03
             731            1269     92.0648E-03     90.7691E-03
             732            1269     92.0648E-03     90.7691E-03
             732            1270     108.978E-03     102.097E-03
             728            1270     108.978E-03     102.097E-03
             727            1270     108.978E-03     102.097E-03
             733            1270     108.978E-03     102.097E-03
             728            1271     124.524E-03     116.740E-03
             734            1271     124.524E-03     116.740E-03
             733            1271     124.524E-03     116.740E-03
             729            1271     124.524E-03     116.740E-03
             729            1272     137.590E-03     131.512E-03
             735            1272     137.590E-03     131.512E-03
             734            1272     137.590E-03     131.512E-03
             730            1272     137.590E-03     131.512E-03
             732            1273     92.7101E-03     89.6699E-03
             736            1273     92.7101E-03     89.6699E-03
             731            1273     92.7101E-03     89.6699E-03
             737            1273     92.7101E-03     89.6699E-03
             737            1274     112.126E-03     107.199E-03
             732            1274     112.126E-03     107.199E-03
             738            1274     112.126E-03     107.199E-03
             733            1274     112.126E-03     107.199E-03
             734            1275     131.519E-03     129.378E-03
             739            1275     131.519E-03     129.378E-03
             733            1275     131.519E-03     129.378E-03
             738            1275     131.519E-03     129.378E-03
             734            1276     153.594E-03     153.012E-03
             740            1276     153.594E-03     153.012E-03
             735            1276     153.594E-03     153.012E-03
             739            1276     153.594E-03     153.012E-03
             737            1277     88.3384E-03     90.5777E-03
             736            1277     88.3384E-03     90.5777E-03
             741            1277     88.3384E-03     90.5777E-03
             742            1277     88.3384E-03     90.5777E-03
             743            1278     101.336E-03     113.377E-03
             738            1278     101.336E-03     113.377E-03
             737            1278     101.336E-03     113.377E-03
             742            1278     101.336E-03     113.377E-03
             738            1279     118.233E-03     143.383E-03
             743            1279     118.233E-03     143.383E-03
             744            1279     118.233E-03     143.383E-03
             739            1279     118.233E-03     143.383E-03
             739            1280     137.354E-03     161.291E-03
             744            1280     137.354E-03     161.291E-03
             740            1280     137.354E-03     161.291E-03
             745            1280     137.354E-03     161.291E-03
             742            1281     92.3831E-03     91.5884E-03
             746            1281     92.3831E-03     91.5884E-03
             741            1281     92.3831E-03     91.5884E-03
             747            1281     92.3831E-03     91.5884E-03
             742            1282     111.182E-03     111.495E-03
             748            1282     111.182E-03     111.495E-03
             747            1282     111.182E-03     111.495E-03
             743            1282     111.182E-03     111.495E-03
             749            1283     135.498E-03     136.322E-03
             748            1283     135.498E-03     136.322E-03
             744            1283     135.498E-03     136.322E-03
             743            1283     135.498E-03     136.322E-03
             749            1284     147.179E-03     143.424E-03
             744            1284     147.179E-03     143.424E-03
             750            1284     147.179E-03     143.424E-03
             745            1284     147.179E-03     143.424E-03
             752            1285     96.9347E-03     95.6006E-03
             747            1285     96.9347E-03     95.6006E-03
             746            1285     96.9347E-03     95.6006E-03
             751            1285     96.9347E-03     95.6006E-03
             748            1286     120.947E-03     120.025E-03
             752            1286     120.947E-03     120.025E-03
             753            1286     120.947E-03     120.025E-03
             747            1286     120.947E-03     120.025E-03
             754            1287     143.458E-03     144.266E-03
             748            1287     143.458E-03     144.266E-03
             753            1287     143.458E-03     144.266E-03
             749            1287     143.458E-03     144.266E-03
             755            1288     155.695E-03     156.504E-03
             749            1288     155.695E-03     156.504E-03
             750            1288     155.695E-03     156.504E-03
             754            1288     155.695E-03     156.504E-03
             751            1289     100.518E-03     99.7312E-03
             757            1289     100.518E-03     99.7312E-03
             752            1289     100.518E-03     99.7312E-03
             756            1289     100.518E-03     99.7312E-03
             753            1290     125.853E-03     125.929E-03
             758            1290     125.853E-03     125.929E-03
             752            1290     125.853E-03     125.929E-03
             757            1290     125.853E-03     125.929E-03
             759            1291     148.148E-03     150.843E-03
             754            1291     148.148E-03     150.843E-03
             753            1291     148.148E-03     150.843E-03
             758            1291     148.148E-03     150.843E-03
             754            1292     167.068E-03     169.210E-03
             755            1292     167.068E-03     169.210E-03
             760            1292     167.068E-03     169.210E-03
             759            1292     167.068E-03     169.210E-03
             756            1293     101.633E-03     104.526E-03
             762            1293     101.633E-03     104.526E-03
             757            1293     101.633E-03     104.526E-03
             761            1293     101.633E-03     104.526E-03
             758            1294     131.083E-03     136.074E-03
             762            1294     131.083E-03     136.074E-03
             763            1294     131.083E-03     136.074E-03
             757            1294     131.083E-03     136.074E-03
             758            1295     155.984E-03     167.997E-03
             759            1295     155.984E-03     167.997E-03
             763            1295     155.984E-03     167.997E-03
             764            1295     155.984E-03     167.997E-03
             760            1296     179.430E-03     191.646E-03
             764            1296     179.430E-03     191.646E-03
             765            1296     179.430E-03     191.646E-03
             759            1296     179.430E-03     191.646E-03
             766            1297     109.248E-03     107.053E-03
             762            1297     109.248E-03     107.053E-03
             767            1297     109.248E-03     107.053E-03
             761            1297     109.248E-03     107.053E-03
             768            1298     150.984E-03     141.030E-03
             763            1298     150.984E-03     141.030E-03
             767            1298     150.984E-03     141.030E-03
             762            1298     150.984E-03     141.030E-03
             769            1299     186.862E-03     178.624E-03
             768            1299     186.862E-03     178.624E-03
             763            1299     186.862E-03     178.624E-03
             764            1299     186.862E-03     178.624E-03
             769            1300     213.503E-03     207.962E-03
             765            1300     213.503E-03     207.962E-03
             764            1300     213.503E-03     207.962E-03
             770            1300     213.503E-03     207.962E-03
             767            1301     108.807E-03     104.456E-03
             772            1301     108.807E-03     104.456E-03
             771            1301     108.807E-03     104.456E-03
             766            1301     108.807E-03     104.456E-03
             772            1302     153.121E-03     146.132E-03
             767            1302     153.121E-03     146.132E-03
             768            1302     153.121E-03     146.132E-03
             773            1302     153.121E-03     146.132E-03
             769            1303     195.032E-03     191.785E-03
             773            1303     195.032E-03     191.785E-03
             768            1303     195.032E-03     191.785E-03
             774            1303     195.032E-03     191.785E-03
             770            1304     231.660E-03     229.372E-03
             775            1304     231.660E-03     229.372E-03
             774            1304     231.660E-03     229.372E-03
             769            1304     231.660E-03     229.372E-03
             772            1305     100.654E-03     105.651E-03
             777            1305     100.654E-03     105.651E-03
             771            1305     100.654E-03     105.651E-03
             776            1305     100.654E-03     105.651E-03
             772            1306     134.341E-03     154.752E-03
             778            1306     134.341E-03     154.752E-03
             773            1306     134.341E-03     154.752E-03
             777            1306     134.341E-03     154.752E-03
             779            1307     171.553E-03     210.966E-03
             774            1307     171.553E-03     210.966E-03
             773            1307     171.553E-03     210.966E-03
             778            1307     171.553E-03     210.966E-03
             780            1308     206.167E-03     242.721E-03
             779            1308     206.167E-03     242.721E-03
             774            1308     206.167E-03     242.721E-03
             775            1308     206.167E-03     242.721E-03
             776            1309     107.553E-03     106.191E-03
             781            1309     107.553E-03     106.191E-03
             782            1309     107.553E-03     106.191E-03
             777            1309     107.553E-03     106.191E-03
             783            1310     150.046E-03     149.099E-03
             782            1310     150.046E-03     149.099E-03
             778            1310     150.046E-03     149.099E-03
             777            1310     150.046E-03     149.099E-03
             783            1311     195.925E-03     196.106E-03
             779            1311     195.925E-03     196.106E-03
             778            1311     195.925E-03     196.106E-03
             784            1311     195.925E-03     196.106E-03
             780            1312     221.302E-03     216.294E-03
             779            1312     221.302E-03     216.294E-03
             785            1312     221.302E-03     216.294E-03
             784            1312     221.302E-03     216.294E-03
             786            1313     114.265E-03     111.718E-03
             782            1313     114.265E-03     111.718E-03
             787            1313     114.265E-03     111.718E-03
             781            1313     114.265E-03     111.718E-03
             788            1314     162.488E-03     159.025E-03
             783            1314     162.488E-03     159.025E-03
             782            1314     162.488E-03     159.025E-03
             787            1314     162.488E-03     159.025E-03
             783            1315     204.346E-03     203.380E-03
             789            1315     204.346E-03     203.380E-03
             784            1315     204.346E-03     203.380E-03
             788            1315     204.346E-03     203.380E-03
             790            1316     228.265E-03     228.147E-03
             789            1316     228.265E-03     228.147E-03
             785            1316     228.265E-03     228.147E-03
             784            1316     228.265E-03     228.147E-03
             792            1317     117.851E-03     117.223E-03
             786            1317     117.851E-03     117.223E-03
             791            1317     117.851E-03     117.223E-03
             787            1317     117.851E-03     117.223E-03
             788            1318     164.815E-03     165.778E-03
             787            1318     164.815E-03     165.778E-03
             792            1318     164.815E-03     165.778E-03
             793            1318     164.815E-03     165.778E-03
             788            1319     203.866E-03     209.641E-03
             794            1319     203.866E-03     209.641E-03
             793            1319     203.866E-03     209.641E-03
             789            1319     203.866E-03     209.641E-03
             789            1320     235.265E-03     240.421E-03
             794            1320     235.265E-03     240.421E-03
             795            1320     235.265E-03     240.421E-03
             790            1320     235.265E-03     240.421E-03
             791            1321     118.881E-03     122.795E-03
             797            1321     118.881E-03     122.795E-03
             796            1321     118.881E-03     122.795E-03
             792            1321     118.881E-03     122.795E-03
             792            1322     170.437E-03     176.532E-03
             797            1322     170.437E-03     176.532E-03
             793            1322     170.437E-03     176.532E-03
             798            1322     170.437E-03     176.532E-03
             798            1323     211.881E-03     227.108E-03
             799            1323     211.881E-03     227.108E-03
             794            1323     211.881E-03     227.108E-03
             793            1323     211.881E-03     227.108E-03
             799            1324     247.675E-03     262.925E-03
             795            1324     247.675E-03     262.925E-03
             794            1324     247.675E-03     262.925E-03
             800            1324     247.675E-03     262.925E-03
             796            1325     127.932E-03     125.140E-03
             801            1325     127.932E-03     125.140E-03
             797            1325     127.932E-03     125.140E-03
             802            1325     127.932E-03     125.140E-03
             798            1326     194.369E-03     181.565E-03
             797            1326     194.369E-03     181.565E-03
             802            1326     194.369E-03     181.565E-03
             803            1326     194.369E-03     181.565E-03
             804            1327     248.535E-03     238.451E-03
             799            1327     248.535E-03     238.451E-03
             803            1327     248.535E-03     238.451E-03
             798            1327     248.535E-03     238.451E-03
             805            1328     286.308E-03     279.818E-03
             804            1328     286.308E-03     279.818E-03
             799            1328     286.308E-03     279.818E-03
             800            1328     286.308E-03     279.818E-03
             802            1329     126.115E-03     120.762E-03
             801            1329     126.115E-03     120.762E-03
             806            1329     126.115E-03     120.762E-03
             807            1329     126.115E-03     120.762E-03
             802            1330     194.832E-03     186.170E-03
             803            1330     194.832E-03     186.170E-03
             808            1330     194.832E-03     186.170E-03
             807            1330     194.832E-03     186.170E-03
             809            1331     256.764E-03     252.740E-03
             808            1331     256.764E-03     252.740E-03
             803            1331     256.764E-03     252.740E-03
             804            1331     256.764E-03     252.740E-03
             804            1332     306.175E-03     302.650E-03
             810            1332     306.175E-03     302.650E-03
             809            1332     306.175E-03     302.650E-03
             805            1332     306.175E-03     302.650E-03
             811            1333     114.888E-03     123.144E-03
             812            1333     114.888E-03     123.144E-03
             806            1333     114.888E-03     123.144E-03
             807            1333     114.888E-03     123.144E-03
             812            1334     169.045E-03     197.654E-03
             813            1334     169.045E-03     197.654E-03
             807            1334     169.045E-03     197.654E-03
             808            1334     169.045E-03     197.654E-03
             808            1335     223.674E-03     276.488E-03
             809            1335     223.674E-03     276.488E-03
             813            1335     223.674E-03     276.488E-03
             814            1335     223.674E-03     276.488E-03
             815            1336     272.991E-03     321.025E-03
             809            1336     272.991E-03     321.025E-03
             810            1336     272.991E-03     321.025E-03
             814            1336     272.991E-03     321.025E-03
             817            1337     126.221E-03     124.712E-03
             812            1337     126.221E-03     124.712E-03
             816            1337     126.221E-03     124.712E-03
             811            1337     126.221E-03     124.712E-03
             817            1338     193.191E-03     189.610E-03
             818            1338     193.191E-03     189.610E-03
             812            1338     193.191E-03     189.610E-03
             813            1338     193.191E-03     189.610E-03
             814            1339     257.705E-03     257.011E-03
             819            1339     257.705E-03     257.011E-03
             818            1339     257.705E-03     257.011E-03
             813            1339     257.705E-03     257.011E-03
             819            1340     294.030E-03     290.776E-03
             815            1340     294.030E-03     290.776E-03
             814            1340     294.030E-03     290.776E-03
             820            1340     294.030E-03     290.776E-03
             821            1341     134.849E-03     129.716E-03
             817            1341     134.849E-03     129.716E-03
             822            1341     134.849E-03     129.716E-03
             816            1341     134.849E-03     129.716E-03
             817            1342     208.134E-03     197.168E-03
             818            1342     208.134E-03     197.168E-03
             822            1342     208.134E-03     197.168E-03
             823            1342     208.134E-03     197.168E-03
             819            1343     269.474E-03     257.365E-03
             823            1343     269.474E-03     257.365E-03
             824            1343     269.474E-03     257.365E-03
             818            1343     269.474E-03     257.365E-03
             819            1344     305.960E-03     293.912E-03
             824            1344     305.960E-03     293.912E-03
             820            1344     305.960E-03     293.912E-03
             825            1344     305.960E-03     293.912E-03
             821            1345     132.343E-03     140.731E-03
             822            1345     132.343E-03     140.731E-03
             826            1345     132.343E-03     140.731E-03
             827            1345     132.343E-03     140.731E-03
             823            1346     199.548E-03     216.932E-03
             828            1346     199.548E-03     216.932E-03
             827            1346     199.548E-03     216.932E-03
             822            1346     199.548E-03     216.932E-03
             823            1347     250.229E-03     282.939E-03
             829            1347     250.229E-03     282.939E-03
             828            1347     250.229E-03     282.939E-03
             824            1347     250.229E-03     282.939E-03
             824            1348     293.352E-03     325.007E-03
             830            1348     293.352E-03     325.007E-03
             825            1348     293.352E-03     325.007E-03
             829            1348     293.352E-03     325.007E-03
             826            1349     143.759E-03     140.548E-03
             832            1349     143.759E-03     140.548E-03
             831            1349     143.759E-03     140.548E-03
             827            1349     143.759E-03     140.548E-03
             827            1350     230.420E-03     213.389E-03
             832            1350     230.420E-03     213.389E-03
             833            1350     230.420E-03     213.389E-03
             828            1350     230.420E-03     213.389E-03
             829            1351     299.679E-03     281.520E-03
             828            1351     299.679E-03     281.520E-03
             833            1351     299.679E-03     281.520E-03
             834            1351     299.679E-03     281.520E-03
             829            1352     345.883E-03     331.217E-03
             834            1352     345.883E-03     331.217E-03
             835            1352     345.883E-03     331.217E-03
             830            1352     345.883E-03     331.217E-03
             831            1353     141.082E-03     135.269E-03
             832            1353     141.082E-03     135.269E-03
             837            1353     141.082E-03     135.269E-03
             836            1353     141.082E-03     135.269E-03
             837            1354     229.154E-03     218.952E-03
             838            1354     229.154E-03     218.952E-03
             833            1354     229.154E-03     218.952E-03
             832            1354     229.154E-03     218.952E-03
             838            1355     305.356E-03     300.926E-03
             839            1355     305.356E-03     300.926E-03
             834            1355     305.356E-03     300.926E-03
             833            1355     305.356E-03     300.926E-03
             840            1356     363.663E-03     361.128E-03
             835            1356     363.663E-03     361.128E-03
             839            1356     363.663E-03     361.128E-03
             834            1356     363.663E-03     361.128E-03
            1618            2006     13.7900E-15     14.2639E-15
            1623            2006     13.7900E-15     14.2639E-15
            1624            2006     13.7900E-15     14.2639E-15
            1619            2006     13.7900E-15     14.2639E-15
            1620            2007     26.8935E-15     25.7100E-15
            1619            2007     26.8935E-15     25.7100E-15
            1624            2007     26.8935E-15     25.7100E-15
            1625            2007     26.8935E-15     25.7100E-15
            1621            2008     25.3346E-15     24.3492E-15
            1625            2008     25.3346E-15     24.3492E-15
            1626            2008     25.3346E-15     24.3492E-15
            1620            2008     25.3346E-15     24.3492E-15
            1626            2009     15.7782E-15     19.2285E-15
            1621            2009     15.7782E-15     19.2285E-15
            1627            2009     15.7782E-15     19.2285E-15
            1622            2009     15.7782E-15     19.2285E-15
            1623            2010     11.4355E-15     12.4287E-15
            1628            2010     11.4355E-15     12.4287E-15
            1629            2010     11.4355E-15     12.4287E-15
            1624            2010     11.4355E-15     12.4287E-15
            1624            2011     21.3713E-15     23.3607E-15
            1630            2011     21.3713E-15     23.3607E-15
            1625            2011     21.3713E-15     23.3607E-15
            1629            2011     21.3713E-15     23.3607E-15
            1630            2012     22.7120E-15     25.6317E-15
            1631            2012     22.7120E-15     25.6317E-15
            1625            2012     22.7120E-15     25.6317E-15
            1626            2012     22.7120E-15     25.6317E-15
            1631            2013     16.8693E-15     21.9876E-15
            1632            2013     16.8693E-15     21.9876E-15
            1627            2013     16.8693E-15     21.9876E-15
            1626            2013     16.8693E-15     21.9876E-15
            1628            2014     13.6580E-15     15.4686E-15
            1633            2014     13.6580E-15     15.4686E-15
            1634            2014     13.6580E-15     15.4686E-15
            1629            2014     13.6580E-15     15.4686E-15
            1629            2015     16.9521E-15     24.2837E-15
            1635            2015     16.9521E-15     24.2837E-15
            1630            2015     16.9521E-15     24.2837E-15
            1634            2015     16.9521E-15     24.2837E-15
            1635            2016     16.5931E-15     21.5196E-15
            1636            2016     16.5931E-15     21.5196E-15
            1630            2016     16.5931E-15     21.5196E-15
            1631            2016     16.5931E-15     21.5196E-15
            1636            2017     20.9752E-15     21.9901E-15
            1637            2017     20.9752E-15     21.9901E-15
            1632            2017     20.9752E-15     21.9901E-15
            1631            2017     20.9752E-15     21.9901E-15
            1634            2018     19.3313E-15     20.3709E-15
            1638            2018     19.3313E-15     20.3709E-15
            1633            2018     19.3313E-15     20.3709E-15
            1639            2018     19.3313E-15     20.3709E-15
            1640            2019     15.8939E-15     22.8181E-15
            1634            2019     15.8939E-15     22.8181E-15
            1635            2019     15.8939E-15     22.8181E-15
            1639            2019     15.8939E-15     22.8181E-15
            1635            2020     17.5809E-15     21.4227E-15
            1640            2020     17.5809E-15     21.4227E-15
            1636            2020     17.5809E-15     21.4227E-15
            1641            2020     17.5809E-15     21.4227E-15
            1642            2021     22.5236E-15     21.1083E-15
            1636            2021     22.5236E-15     21.1083E-15
            1637            2021     22.5236E-15     21.1083E-15
            1641            2021     22.5236E-15     21.1083E-15
            1643            2022     20.4833E-15     22.1909E-15
            1639            2022     20.4833E-15     22.1909E-15
            1644            2022     20.4833E-15     22.1909E-15
            1638            2022     20.4833E-15     22.1909E-15
            1639            2023     15.9660E-15     20.0329E-15
            1645            2023     15.9660E-15     20.0329E-15
            1640            2023     15.9660E-15     20.0329E-15
            1644            2023     15.9660E-15     20.0329E-15
            1640            2024     23.5694E-15     26.6778E-15
            1641            2024     23.5694E-15     26.6778E-15
            1645            2024     23.5694E-15     26.6778E-15
            1646            2024     23.5694E-15     26.6778E-15
            1641            2025     20.6886E-15     22.5229E-15
            1647            2025     20.6886E-15     22.5229E-15
            1646            2025     20.6886E-15     22.5229E-15
            1642            2025     20.6886E-15     22.5229E-15
            1654            2026     330.245E-03     347.984E-03
            1648            2026     330.245E-03     347.984E-03
            1653            2026     330.245E-03     347.984E-03
            1649            2026     330.245E-03     347.984E-03
            1650            2027     280.247E-03     300.325E-03
            1654            2027     280.247E-03     300.325E-03
            1649            2027     280.247E-03     300.325E-03
            1655            2027     280.247E-03     300.325E-03
            1655            2028     207.729E-03     219.587E-03
            1651            2028     207.729E-03     219.587E-03
            1656            2028     207.729E-03     219.587E-03
            1650            2028     207.729E-03     219.587E-03
            1652            2029     128.153E-03     133.344E-03
            1657            2029     128.153E-03     133.344E-03
            1651            2029     128.153E-03     133.344E-03
            1656            2029     128.153E-03     133.344E-03
            1653            2030     355.470E-03     366.172E-03
            1654            2030     355.470E-03     366.172E-03
            1659            2030     355.470E-03     366.172E-03
            1658            2030     355.470E-03     366.172E-03
            1659            2031     308.288E-03     321.103E-03
            1660            2031     308.288E-03     321.103E-03
            1654            2031     308.288E-03     321.103E-03
            1655            2031     308.288E-03     321.103E-03
            1655            2032     231.940E-03     237.273E-03
            1656            2032     231.940E-03     237.273E-03
            1661            2032     231.940E-03     237.273E-03
            1660            2032     231.940E-03     237.273E-03
            1661            2033     143.049E-03     148.365E-03
            1656            2033     143.049E-03     148.365E-03
            1662            2033     143.049E-03     148.365E-03
            1657            2033     143.049E-03     148.365E-03
            1663            2034     399.040E-03     372.918E-03
            1658            2034     399.040E-03     372.918E-03
            1659            2034     399.040E-03     372.918E-03
            1664            2034     399.040E-03     372.918E-03
            1659            2035     352.766E-03     324.844E-03
            1660            2035     352.766E-03     324.844E-03
            1664            2035     352.766E-03     324.844E-03
            1665            2035     352.766E-03     324.844E-03
            1660            2036     267.875E-03     245.691E-03
            1661            2036     267.875E-03     245.691E-03
            1666            2036     267.875E-03     245.691E-03
            1665            2036     267.875E-03     245.691E-03
            1662            2037     158.802E-03     153.347E-03
            1661            2037     158.802E-03     153.347E-03
            1666            2037     158.802E-03     153.347E-03
            1667            2037     158.802E-03     153.347E-03
            1668            2038     397.295E-03     405.122E-03
            1664            2038     397.295E-03     405.122E-03
            1669            2038     397.295E-03     405.122E-03
            1663            2038     397.295E-03     405.122E-03
            1669            2039     334.711E-03     340.461E-03
            1670            2039     334.711E-03     340.461E-03
            1664            2039     334.711E-03     340.461E-03
            1665            2039     334.711E-03     340.461E-03
            1666            2040     252.376E-03     250.701E-03
            1670            2040     252.376E-03     250.701E-03
            1665            2040     252.376E-03     250.701E-03
            1671            2040     252.376E-03     250.701E-03
            1667            2041     152.868E-03     151.153E-03
            1666            2041     152.868E-03     151.153E-03
            1671            2041     152.868E-03     151.153E-03
            1672            2041     152.868E-03     151.153E-03
            1833            2162     220.088E-03     220.474E-03
            1838            2162     220.088E-03     220.474E-03
            1834            2162     220.088E-03     220.474E-03
            1839            2162     220.088E-03     220.474E-03
            1839            2163     270.145E-03     273.145E-03
            1834            2163     270.145E-03     273.145E-03
            1840            2163     270.145E-03     273.145E-03
            1835            2163     270.145E-03     273.145E-03
            1840            2164     322.855E-03     328.067E-03
            1835            2164     322.855E-03     328.067E-03
            1836            2164     322.855E-03     328.067E-03
            1841            2164     322.855E-03     328.067E-03
            1841            2165     358.945E-03     365.562E-03
            1842            2165     358.945E-03     365.562E-03
            1837            2165     358.945E-03     365.562E-03
            1836            2165     358.945E-03     365.562E-03
            1843            2166     226.926E-03     227.064E-03
            1839            2166     226.926E-03     227.064E-03
            1844            2166     226.926E-03     227.064E-03
            1838            2166     226.926E-03     227.064E-03
            1840            2167     261.731E-03     269.991E-03
            1845            2167     261.731E-03     269.991E-03
            1844            2167     261.731E-03     269.991E-03
            1839            2167     261.731E-03     269.991E-03
            1841            2168     298.548E-03     319.328E-03
            1845            2168     298.548E-03     319.328E-03
            1840            2168     298.548E-03     319.328E-03
            1846            2168     298.548E-03     319.328E-03
            1846            2169     333.692E-03     357.692E-03
            1847            2169     333.692E-03     357.692E-03
            1842            2169     333.692E-03     357.692E-03
            1841            2169     333.692E-03     357.692E-03
            1849            2170     217.799E-03     212.259E-03
            1848            2170     217.799E-03     212.259E-03
            1844            2170     217.799E-03     212.259E-03
            1843            2170     217.799E-03     212.259E-03
            1850            2171     260.317E-03     251.852E-03
            1849            2171     260.317E-03     251.852E-03
            1844            2171     260.317E-03     251.852E-03
            1845            2171     260.317E-03     251.852E-03
            1850            2172     300.688E-03     294.313E-03
            1845            2172     300.688E-03     294.313E-03
            1846            2172     300.688E-03     294.313E-03
            1851            2172     300.688E-03     294.313E-03
            1851            2173     336.942E-03     335.174E-03
            1852            2173     336.942E-03     335.174E-03
            1846            2173     336.942E-03     335.174E-03
            1847            2173     336.942E-03     335.174E-03
            1849            2174     214.275E-03     211.304E-03
            1853            2174     214.275E-03     211.304E-03
            1854            2174     214.275E-03     211.304E-03
            1848            2174     214.275E-03     211.304E-03
            1849            2175     251.314E-03     238.215E-03
            1855            2175     251.314E-03     238.215E-03
            1854            2175     251.314E-03     238.215E-03
            1850            2175     251.314E-03     238.215E-03
            1851            2176     290.841E-03     272.072E-03
            1850            2176     290.841E-03     272.072E-03
            1856            2176     290.841E-03     272.072E-03
            1855            2176     290.841E-03     272.072E-03
            1851            2177     305.641E-03     281.288E-03
            1856            2177     305.641E-03     281.288E-03
            1857            2177     305.641E-03     281.288E-03
            1852            2177     305.641E-03     281.288E-03
            1858            2178     25.0289E-03     26.8773E-03
            1863            2178     25.0289E-03     26.8773E-03
            1859            2178     25.0289E-03     26.8773E-03
            1864            2178     25.0289E-03     26.8773E-03
            1860            2179     40.4512E-03     40.7677E-03
            1864            2179     40.4512E-03     40.7677E-03
            1859            2179     40.4512E-03     40.7677E-03
            1865            2179     40.4512E-03     40.7677E-03
            1865            2180     53.4576E-03     53.5412E-03
            1866            2180     53.4576E-03     53.5412E-03
            1860            2180     53.4576E-03     53.5412E-03
            1861            2180     53.4576E-03     53.5412E-03
            1867            2181     62.9719E-03     62.6198E-03
            1866            2181     62.9719E-03     62.6198E-03
            1862            2181     62.9719E-03     62.6198E-03
            1861            2181     62.9719E-03     62.6198E-03
            1868            2182     24.4538E-03     27.9257E-03
            1869            2182     24.4538E-03     27.9257E-03
            1863            2182     24.4538E-03     27.9257E-03
            1864            2182     24.4538E-03     27.9257E-03
            1870            2183     46.5419E-03     48.2320E-03
            1864            2183     46.5419E-03     48.2320E-03
            1869            2183     46.5419E-03     48.2320E-03
            1865            2183     46.5419E-03     48.2320E-03
            1865            2184     63.9287E-03     64.8773E-03
            1870            2184     63.9287E-03     64.8773E-03
            1866            2184     63.9287E-03     64.8773E-03
            1871            2184     63.9287E-03     64.8773E-03
            1867            2185     77.4550E-03     76.5995E-03
            1871            2185     77.4550E-03     76.5995E-03
            1872            2185     77.4550E-03     76.5995E-03
            1866            2185     77.4550E-03     76.5995E-03
            1869            2186     28.9097E-03     29.9303E-03
            1874            2186     28.9097E-03     29.9303E-03
            1868            2186     28.9097E-03     29.9303E-03
            1873            2186     28.9097E-03     29.9303E-03
            1870            2187     49.2454E-03     50.6185E-03
            1875            2187     49.2454E-03     50.6185E-03
            1874            2187     49.2454E-03     50.6185E-03
            1869            2187     49.2454E-03     50.6185E-03
            1876            2188     66.1315E-03     67.3806E-03
            1870            2188     66.1315E-03     67.3806E-03
            1871            2188     66.1315E-03     67.3806E-03
            1875            2188     66.1315E-03     67.3806E-03
            1877            2189     77.9248E-03     77.6403E-03
            1871            2189     77.9248E-03     77.6403E-03
            1876            2189     77.9248E-03     77.6403E-03
            1872            2189     77.9248E-03     77.6403E-03
            1874            2190     44.0342E-03     40.7646E-03
            1873            2190     44.0342E-03     40.7646E-03
            1879            2190     44.0342E-03     40.7646E-03
            1878            2190     44.0342E-03     40.7646E-03
            1879            2191     56.1473E-03     54.1069E-03
            1875            2191     56.1473E-03     54.1069E-03
            1880            2191     56.1473E-03     54.1069E-03
            1874            2191     56.1473E-03     54.1069E-03
            1881            2192     69.7434E-03     69.3741E-03
            1880            2192     69.7434E-03     69.3741E-03
            1875            2192     69.7434E-03     69.3741E-03
            1876            2192     69.7434E-03     69.3741E-03
            1882            2193     78.7489E-03     78.4671E-03
            1877            2193     78.7489E-03     78.4671E-03
            1876            2193     78.7489E-03     78.4671E-03
            1881            2193     78.7489E-03     78.4671E-03
            1883            2194     55.4096E-03     61.4748E-03
            1879            2194     55.4096E-03     61.4748E-03
            1884            2194     55.4096E-03     61.4748E-03
            1878            2194     55.4096E-03     61.4748E-03
            1879            2195     61.6185E-03     66.7028E-03
            1880            2195     61.6185E-03     66.7028E-03
            1884            2195     61.6185E-03     66.7028E-03
            1885            2195     61.6185E-03     66.7028E-03
            1886            2196     72.2406E-03     74.5732E-03
            1885            2196     72.2406E-03     74.5732E-03
            1880            2196     72.2406E-03     74.5732E-03
            1881            2196     72.2406E-03     74.5732E-03
            1887            2197     79.2922E-03     80.2191E-03
            1882            2197     79.2922E-03     80.2191E-03
            1881            2197     79.2922E-03     80.2191E-03
            1886            2197     79.2922E-03     80.2191E-03
            1884            2198     80.1451E-03     76.3580E-03
            1883            2198     80.1451E-03     76.3580E-03
            1888            2198     80.1451E-03     76.3580E-03
            1889            2198     80.1451E-03     76.3580E-03
            1890            2199     79.0783E-03     74.7815E-03
            1889            2199     79.0783E-03     74.7815E-03
            1884            2199     79.0783E-03     74.7815E-03
            1885            2199     79.0783E-03     74.7815E-03
            1891            2200     81.3665E-03     77.5326E-03
            1885            2200     81.3665E-03     77.5326E-03
            1886            2200     81.3665E-03     77.5326E-03
            1890            2200     81.3665E-03     77.5326E-03
            1887            2201     82.7360E-03     81.6947E-03
            1886            2201     82.7360E-03     81.6947E-03
            1891            2201     82.7360E-03     81.6947E-03
            1892            2201     82.7360E-03     81.6947E-03
            1889            2202     95.1003E-03     95.1560E-03
            1893            2202     95.1003E-03     95.1560E-03
            1888            2202     95.1003E-03     95.1560E-03
            1894            2202     95.1003E-03     95.1560E-03
            1889            2203     85.8449E-03     84.7732E-03
            1894            2203     85.8449E-03     84.7732E-03
            1895            2203     85.8449E-03     84.7732E-03
            1890            2203     85.8449E-03     84.7732E-03
            1890            2204     84.5114E-03     81.5972E-03
            1896            2204     84.5114E-03     81.5972E-03
            1891            2204     84.5114E-03     81.5972E-03
            1895            2204     84.5114E-03     81.5972E-03
            1897            2205     83.5891E-03     81.3382E-03
            1896            2205     83.5891E-03     81.3382E-03
            1892            2205     83.5891E-03     81.3382E-03
            1891            2205     83.5891E-03     81.3382E-03
            1899            2206     82.9262E-03     96.1635E-03
            1894            2206     82.9262E-03     96.1635E-03
            1893            2206     82.9262E-03     96.1635E-03
            1898            2206     82.9262E-03     96.1635E-03
            1900            2207     78.1939E-03     91.9162E-03
            1894            2207     78.1939E-03     91.9162E-03
            1899            2207     78.1939E-03     91.9162E-03
            1895            2207     78.1939E-03     91.9162E-03
            1896            2208     78.6941E-03     84.6376E-03
            1895            2208     78.6941E-03     84.6376E-03
            1901            2208     78.6941E-03     84.6376E-03
            1900            2208     78.6941E-03     84.6376E-03
            1901            2209     81.0453E-03     81.5019E-03
            1896            2209     81.0453E-03     81.5019E-03
            1897            2209     81.0453E-03     81.5019E-03
            1902            2209     81.0453E-03     81.5019E-03
            1904            2210     85.1875E-03     84.0037E-03
            1903            2210     85.1875E-03     84.0037E-03
            1898            2210     85.1875E-03     84.0037E-03
            1899            2210     85.1875E-03     84.0037E-03
            1904            2211     88.0357E-03     89.0840E-03
            1900            2211     88.0357E-03     89.0840E-03
            1899            2211     88.0357E-03     89.0840E-03
            1905            2211     88.0357E-03     89.0840E-03
            1906            2212     84.0733E-03     84.3915E-03
            1900            2212     84.0733E-03     84.3915E-03
            1905            2212     84.0733E-03     84.3915E-03
            1901            2212     84.0733E-03     84.3915E-03
            1902            2213     82.9210E-03     82.5244E-03
            1901            2213     82.9210E-03     82.5244E-03
            1906            2213     82.9210E-03     82.5244E-03
            1907            2213     82.9210E-03     82.5244E-03
            1903            2214     98.2610E-03     94.8519E-03
            1904            2214     98.2610E-03     94.8519E-03
            1908            2214     98.2610E-03     94.8519E-03
            1909            2214     98.2610E-03     94.8519E-03
            1904            2215     96.4817E-03     94.5461E-03
            1909            2215     96.4817E-03     94.5461E-03
            1910            2215     96.4817E-03     94.5461E-03
            1905            2215     96.4817E-03     94.5461E-03
            1910            2216     91.1486E-03     89.7637E-03
            1911            2216     91.1486E-03     89.7637E-03
            1906            2216     91.1486E-03     89.7637E-03
            1905            2216     91.1486E-03     89.7637E-03
            1912            2217     85.7144E-03     84.3854E-03
            1906            2217     85.7144E-03     84.3854E-03
            1907            2217     85.7144E-03     84.3854E-03
            1911            2217     85.7144E-03     84.3854E-03
            1914            2218     106.483E-03     117.183E-03
            1913            2218     106.483E-03     117.183E-03
            1909            2218     106.483E-03     117.183E-03
            1908            2218     106.483E-03     117.183E-03
            1915            2219     98.8989E-03     109.722E-03
            1910            2219     98.8989E-03     109.722E-03
            1914            2219     98.8989E-03     109.722E-03
            1909            2219     98.8989E-03     109.722E-03
            1916            2220     93.7202E-03     99.2068E-03
            1910            2220     93.7202E-03     99.2068E-03
            1915            2220     93.7202E-03     99.2068E-03
            1911            2220     93.7202E-03     99.2068E-03
            1911            2221     86.5231E-03     88.6422E-03
            1917            2221     86.5231E-03     88.6422E-03
            1916            2221     86.5231E-03     88.6422E-03
            1912            2221     86.5231E-03     88.6422E-03
            1914            2222     137.590E-03     131.512E-03
            1919            2222     137.590E-03     131.512E-03
            1918            2222     137.590E-03     131.512E-03
            1913            2222     137.590E-03     131.512E-03
            1920            2223     124.524E-03     116.740E-03
            1915            2223     124.524E-03     116.740E-03
            1914            2223     124.524E-03     116.740E-03
            1919            2223     124.524E-03     116.740E-03
            1920            2224     108.978E-03     102.097E-03
            1916            2224     108.978E-03     102.097E-03
            1915            2224     108.978E-03     102.097E-03
            1921            2224     108.978E-03     102.097E-03
            1916            2225     92.0648E-03     90.7691E-03
            1921            2225     92.0648E-03     90.7691E-03
            1922            2225     92.0648E-03     90.7691E-03
            1917            2225     92.0648E-03     90.7691E-03
            1919            2226     153.594E-03     153.012E-03
            1923            2226     153.594E-03     153.012E-03
            1924            2226     153.594E-03     153.012E-03
            1918            2226     153.594E-03     153.012E-03
            1919            2227     131.519E-03     129.378E-03
            1920            2227     131.519E-03     129.378E-03
            1925            2227     131.519E-03     129.378E-03
            1924            2227     131.519E-03     129.378E-03
            1920            2228     112.126E-03     107.199E-03
            1921            2228     112.126E-03     107.199E-03
            1926            2228     112.126E-03     107.199E-03
            1925            2228     112.126E-03     107.199E-03
            1921            2229     92.7101E-03     89.6699E-03
            1922            2229     92.7101E-03     89.6699E-03
            1927            2229     92.7101E-03     89.6699E-03
            1926            2229     92.7101E-03     89.6699E-03
            1924            2230     137.354E-03     161.291E-03
            1928            2230     137.354E-03     161.291E-03
            1923            2230     137.354E-03     161.291E-03
            1929            2230     137.354E-03     161.291E-03
            1929            2231     118.233E-03     143.383E-03
            1924            2231     118.233E-03     143.383E-03
            1930            2231     118.233E-03     143.383E-03
            1925            2231     118.233E-03     143.383E-03
            1931            2232     101.336E-03     113.377E-03
            1925            2232     101.336E-03     113.377E-03
            1926            2232     101.336E-03     113.377E-03
            1930            2232     101.336E-03     113.377E-03
            1932            2233     88.3384E-03     90.5777E-03
            1927            2233     88.3384E-03     90.5777E-03
            1931            2233     88.3384E-03     90.5777E-03
            1926            2233     88.3384E-03     90.5777E-03
            1929            2234     147.179E-03     143.424E-03
            1934            2234     147.179E-03     143.424E-03
            1933            2234     147.179E-03     143.424E-03
            1928            2234     147.179E-03     143.424E-03
            1930            2235     135.498E-03     136.322E-03
            1935            2235     135.498E-03     136.322E-03
            1929            2235     135.498E-03     136.322E-03
            1934            2235     135.498E-03     136.322E-03
            1936            2236     111.182E-03     111.495E-03
            1935            2236     111.182E-03     111.495E-03
            1930            2236     111.182E-03     111.495E-03
            1931            2236     111.182E-03     111.495E-03
            1937            2237     92.3831E-03     91.5884E-03
            1936            2237     92.3831E-03     91.5884E-03
            1932            2237     92.3831E-03     91.5884E-03
            1931            2237     92.3831E-03     91.5884E-03
            1939            2238     155.695E-03     156.504E-03
            1938            2238     155.695E-03     156.504E-03
            1933            2238     155.695E-03     156.504E-03
            1934            2238     155.695E-03     156.504E-03
            1935            2239     143.458E-03     144.266E-03
            1934            2239     143.458E-03     144.266E-03
            1940            2239     143.458E-03     144.266E-03
            1939            2239     143.458E-03     144.266E-03
            1936            2240     120.947E-03     120.025E-03
            1940            2240     120.947E-03     120.025E-03
            1941            2240     120.947E-03     120.025E-03
            1935            2240     120.947E-03     120.025E-03
            1942            2241     96.9347E-03     95.6006E-03
            1937            2241     96.9347E-03     95.6006E-03
            1936            2241     96.9347E-03     95.6006E-03
            1941            2241     96.9347E-03     95.6006E-03
            1938            2242     167.068E-03     169.210E-03
            1943            2242     167.068E-03     169.210E-03
            1944            2242     167.068E-03     169.210E-03
            1939            2242     167.068E-03     169.210E-03
            1945            2243     148.148E-03     150.843E-03
            1940            2243     148.148E-03     150.843E-03
            1944            2243     148.148E-03     150.843E-03
            1939            2243     148.148E-03     150.843E-03
            1940            2244     125.853E-03     125.929E-03
            1941            2244     125.853E-03     125.929E-03
            1946            2244     125.853E-03     125.929E-03
            1945            2244     125.853E-03     125.929E-03
            1941            2245     100.518E-03     99.7312E-03
            1942            2245     100.518E-03     99.7312E-03
            1946            2245     100.518E-03     99.7312E-03
            1947            2245     100.518E-03     99.7312E-03
            1949            2246     179.430E-03     191.646E-03
            1944            2246     179.430E-03     191.646E-03
            1948            2246     179.430E-03     191.646E-03
            1943            2246     179.430E-03     191.646E-03
            1950            2247     155.984E-03     167.997E-03
            1949            2247     155.984E-03     167.997E-03
            1945            2247     155.984E-03     167.997E-03
            1944            2247     155.984E-03     167.997E-03
            1945            2248     131.083E-03     136.074E-03
            1951            2248     131.083E-03     136.074E-03
            1950            2248     131.083E-03     136.074E-03
            1946            2248     131.083E-03     136.074E-03
            1947            2249     101.633E-03     104.526E-03
            1946            2249     101.633E-03     104.526E-03
            1952            2249     101.633E-03     104.526E-03
            1951            2249     101.633E-03     104.526E-03
            1948            2250     213.503E-03     207.962E-03
            1949            2250     213.503E-03     207.962E-03
            1954            2250     213.503E-03     207.962E-03
            1953            2250     213.503E-03     207.962E-03
            1950            2251     186.862E-03     178.624E-03
            1949            2251     186.862E-03     178.624E-03
            1955            2251     186.862E-03     178.624E-03
            1954            2251     186.862E-03     178.624E-03
            1950            2252     150.984E-03     141.030E-03
            1956            2252     150.984E-03     141.030E-03
            1951            2252     150.984E-03     141.030E-03
            1955            2252     150.984E-03     141.030E-03
            1956            2253     109.248E-03     107.053E-03
            1951            2253     109.248E-03     107.053E-03
            1957            2253     109.248E-03     107.053E-03
            1952            2253     109.248E-03     107.053E-03
            1958            2254     231.660E-03     229.372E-03
            1954            2254     231.660E-03     229.372E-03
            1953            2254     231.660E-03     229.372E-03
            1959            2254     231.660E-03     229.372E-03
            1960            2255     195.032E-03     191.785E-03
            1955            2255     195.032E-03     191.785E-03
            1959            2255     195.032E-03     191.785E-03
            1954            2255     195.032E-03     191.785E-03
            1961            2256     153.121E-03     146.132E-03
            1955            2256     153.121E-03     146.132E-03
            1956            2256     153.121E-03     146.132E-03
            1960            2256     153.121E-03     146.132E-03
            1961            2257     108.807E-03     104.456E-03
            1957            2257     108.807E-03     104.456E-03
            1956            2257     108.807E-03     104.456E-03
            1962            2257     108.807E-03     104.456E-03
            1959            2258     206.167E-03     242.721E-03
            1963            2258     206.167E-03     242.721E-03
            1964            2258     206.167E-03     242.721E-03
            1958            2258     206.167E-03     242.721E-03
            1959            2259     171.553E-03     210.966E-03
            1960            2259     171.553E-03     210.966E-03
            1965            2259     171.553E-03     210.966E-03
            1964            2259     171.553E-03     210.966E-03
            1960            2260     134.341E-03     154.752E-03
            1965            2260     134.341E-03     154.752E-03
            1961            2260     134.341E-03     154.752E-03
            1966            2260     134.341E-03     154.752E-03
            1962            2261     100.654E-03     105.651E-03
            1961            2261     100.654E-03     105.651E-03
            1967            2261     100.654E-03     105.651E-03
            1966            2261     100.654E-03     105.651E-03
            1963            2262     221.302E-03     216.294E-03
            1968            2262     221.302E-03     216.294E-03
            1969            2262     221.302E-03     216.294E-03
            1964            2262     221.302E-03     216.294E-03
            1969            2263     195.925E-03     196.106E-03
            1970            2263     195.925E-03     196.106E-03
            1964            2263     195.925E-03     196.106E-03
            1965            2263     195.925E-03     196.106E-03
            1966            2264     150.046E-03     149.099E-03
            1971            2264     150.046E-03     149.099E-03
            1970            2264     150.046E-03     149.099E-03
            1965            2264     150.046E-03     149.099E-03
            1967            2265     107.553E-03     106.191E-03
            1972            2265     107.553E-03     106.191E-03
            1966            2265     107.553E-03     106.191E-03
            1971            2265     107.553E-03     106.191E-03
            1973            2266     228.265E-03     228.147E-03
            1969            2266     228.265E-03     228.147E-03
            1968            2266     228.265E-03     228.147E-03
            1974            2266     228.265E-03     228.147E-03
            1974            2267     204.346E-03     203.380E-03
            1969            2267     204.346E-03     203.380E-03
            1970            2267     204.346E-03     203.380E-03
            1975            2267     204.346E-03     203.380E-03
            1976            2268     162.488E-03     159.025E-03
            1970            2268     162.488E-03     159.025E-03
            1971            2268     162.488E-03     159.025E-03
            1975            2268     162.488E-03     159.025E-03
            1977            2269     114.265E-03     111.718E-03
            1971            2269     114.265E-03     111.718E-03
            1976            2269     114.265E-03     111.718E-03
            1972            2269     114.265E-03     111.718E-03
            1973            2270     235.265E-03     240.421E-03
            1978            2270     235.265E-03     240.421E-03
            1979            2270     235.265E-03     240.421E-03
            1974            2270     235.265E-03     240.421E-03
            1974            2271     203.866E-03     209.641E-03
            1980            2271     203.866E-03     209.641E-03
            1979            2271     203.866E-03     209.641E-03
            1975            2271     203.866E-03     209.641E-03
            1980            2272     164.815E-03     165.778E-03
            1976            2272     164.815E-03     165.778E-03
            1975            2272     164.815E-03     165.778E-03
            1981            2272     164.815E-03     165.778E-03
            1981            2273     117.851E-03     117.223E-03
            1976            2273     117.851E-03     117.223E-03
            1982            2273     117.851E-03     117.223E-03
            1977            2273     117.851E-03     117.223E-03
            1978            2274     247.675E-03     262.925E-03
            1983            2274     247.675E-03     262.925E-03
            1979            2274     247.675E-03     262.925E-03
            1984            2274     247.675E-03     262.925E-03
            1984            2275     211.881E-03     227.108E-03
            1979            2275     211.881E-03     227.108E-03
            1985            2275     211.881E-03     227.108E-03
            1980            2275     211.881E-03     227.108E-03
            1985            2276     170.437E-03     176.532E-03
            1986            2276     170.437E-03     176.532E-03
            1980            2276     170.437E-03     176.532E-03
            1981            2276     170.437E-03     176.532E-03
            1981            2277     118.881E-03     122.795E-03
            1982            2277     118.881E-03     122.795E-03
            1987            2277     118.881E-03     122.795E-03
            1986            2277     118.881E-03     122.795E-03
            1984            2278     286.308E-03     279.818E-03
            1989            2278     286.308E-03     279.818E-03
            1988            2278     286.308E-03     279.818E-03
            1983            2278     286.308E-03     279.818E-03
            1989            2279     248.535E-03     238.451E-03
            1990            2279     248.535E-03     238.451E-03
            1985            2279     248.535E-03     238.451E-03
            1984            2279     248.535E-03     238.451E-03
            1991            2280     194.369E-03     181.565E-03
            1985            2280     194.369E-03     181.565E-03
            1986            2280     194.369E-03     181.565E-03
            1990            2280     194.369E-03     181.565E-03
            1987            2281     127.932E-03     125.140E-03
            1991            2281     127.932E-03     125.140E-03
            1992            2281     127.932E-03     125.140E-03
            1986            2281     127.932E-03     125.140E-03
            1988            2282     306.175E-03     302.650E-03
            1989            2282     306.175E-03     302.650E-03
            1994            2282     306.175E-03     302.650E-03
            1993            2282     306.175E-03     302.650E-03
            1990            2283     256.764E-03     252.740E-03
            1994            2283     256.764E-03     252.740E-03
            1989            2283     256.764E-03     252.740E-03
            1995            2283     256.764E-03     252.740E-03
            1991            2284     194.832E-03     186.170E-03
            1995            2284     194.832E-03     186.170E-03
            1996            2284     194.832E-03     186.170E-03
            1990            2284     194.832E-03     186.170E-03
            1992            2285     126.115E-03     120.762E-03
            1996            2285     126.115E-03     120.762E-03
            1991            2285     126.115E-03     120.762E-03
            1997            2285     126.115E-03     120.762E-03
            1998            2286     272.991E-03     321.025E-03
            1994            2286     272.991E-03     321.025E-03
            1999            2286     272.991E-03     321.025E-03
            1993            2286     272.991E-03     321.025E-03
            1995            2287     223.674E-03     276.488E-03
            1999            2287     223.674E-03     276.488E-03
            2000            2287     223.674E-03     276.488E-03
            1994            2287     223.674E-03     276.488E-03
            1996            2288     169.045E-03     197.654E-03
            2000            2288     169.045E-03     197.654E-03
            1995            2288     169.045E-03     197.654E-03
            2001            2288     169.045E-03     197.654E-03
            2002            2289     114.888E-03     123.144E-03
            2001            2289     114.888E-03     123.144E-03
            1996            2289     114.888E-03     123.144E-03
            1997            2289     114.888E-03     123.144E-03
            2003            2290     294.030E-03     290.776E-03
            2004            2290     294.030E-03     290.776E-03
            1998            2290     294.030E-03     290.776E-03
            1999            2290     294.030E-03     290.776E-03
            1999            2291     257.705E-03     257.011E-03
            2004            2291     257.705E-03     257.011E-03
            2005            2291     257.705E-03     257.011E-03
            2000            2291     257.705E-03     257.011E-03
            2000            2292     193.191E-03     189.610E-03
            2001            2292     193.191E-03     189.610E-03
            2006            2292     193.191E-03     189.610E-03
            2005            2292     193.191E-03     189.610E-03
            2007            2293     126.221E-03     124.712E-03
            2006            2293     126.221E-03     124.712E-03
            2002            2293     126.221E-03     124.712E-03
            2001            2293     126.221E-03     124.712E-03
            2008            2294     305.960E-03     293.912E-03
            2009            2294     305.960E-03     293.912E-03
            2003            2294     305.960E-03     293.912E-03
            2004            2294     305.960E-03     293.912E-03
            2005            2295     269.474E-03     257.365E-03
            2010            2295     269.474E-03     257.365E-03
            2009            2295     269.474E-03     257.365E-03
            2004            2295     269.474E-03     257.365E-03
            2006            2296     208.134E-03     197.168E-03
            2011            2296     208.134E-03     197.168E-03
            2005            2296     208.134E-03     197.168E-03
            2010            2296     208.134E-03     197.168E-03
            2006            2297     134.849E-03     129.716E-03
            2011            2297     134.849E-03     129.716E-03
            2012            2297     134.849E-03     129.716E-03
            2007            2297     134.849E-03     129.716E-03
            2014            2298     293.352E-03     325.007E-03
            2013            2298     293.352E-03     325.007E-03
            2008            2298     293.352E-03     325.007E-03
            2009            2298     293.352E-03     325.007E-03
            2015            2299     250.229E-03     282.939E-03
            2014            2299     250.229E-03     282.939E-03
            2010            2299     250.229E-03     282.939E-03
            2009            2299     250.229E-03     282.939E-03
            2015            2300     199.548E-03     216.932E-03
            2011            2300     199.548E-03     216.932E-03
            2010            2300     199.548E-03     216.932E-03
            2016            2300     199.548E-03     216.932E-03
            2011            2301     132.343E-03     140.731E-03
            2016            2301     132.343E-03     140.731E-03
            2012            2301     132.343E-03     140.731E-03
            2017            2301     132.343E-03     140.731E-03
            2013            2302     345.883E-03     331.217E-03
            2018            2302     345.883E-03     331.217E-03
            2014            2302     345.883E-03     331.217E-03
            2019            2302     345.883E-03     331.217E-03
            2019            2303     299.679E-03     281.520E-03
            2015            2303     299.679E-03     281.520E-03
            2014            2303     299.679E-03     281.520E-03
            2020            2303     299.679E-03     281.520E-03
            2016            2304     230.420E-03     213.389E-03
            2015            2304     230.420E-03     213.389E-03
            2021            2304     230.420E-03     213.389E-03
            2020            2304     230.420E-03     213.389E-03
            2021            2305     143.759E-03     140.548E-03
            2016            2305     143.759E-03     140.548E-03
            2017            2305     143.759E-03     140.548E-03
            2022            2305     143.759E-03     140.548E-03
            2018            2306     363.663E-03     361.128E-03
            2019            2306     363.663E-03     361.128E-03
            2024            2306     363.663E-03     361.128E-03
            2023            2306     363.663E-03     361.128E-03
            2024            2307     305.356E-03     300.926E-03
            2020            2307     305.356E-03     300.926E-03
            2025            2307     305.356E-03     300.926E-03
            2019            2307     305.356E-03     300.926E-03
            2020            2308     229.154E-03     218.952E-03
            2026            2308     229.154E-03     218.952E-03
            2021            2308     229.154E-03     218.952E-03
            2025            2308     229.154E-03     218.952E-03
            2021            2309     141.082E-03     135.269E-03
            2026            2309     141.082E-03     135.269E-03
            2027            2309     141.082E-03     135.269E-03
            2022            2309     141.082E-03     135.269E-03
            2151            2384     358.945E-03     365.562E-03
            2146            2384     358.945E-03     365.562E-03
            2150            2384     358.945E-03     365.562E-03
            2145            2384     358.945E-03     365.562E-03
            2146            2385     322.855E-03     328.067E-03
            2151            2385     322.855E-03     328.067E-03
            2147            2385     322.855E-03     328.067E-03
            2152            2385     322.855E-03     328.067E-03
            2147            2386     270.145E-03     273.145E-03
            2148            2386     270.145E-03     273.145E-03
            2153            2386     270.145E-03     273.145E-03
            2152            2386     270.145E-03     273.145E-03
            2153            2387     220.088E-03     220.474E-03
            2154            2387     220.088E-03     220.474E-03
            2149            2387     220.088E-03     220.474E-03
            2148            2387     220.088E-03     220.474E-03
            2150            2388     333.692E-03     357.692E-03
            2156            2388     333.692E-03     357.692E-03
            2155            2388     333.692E-03     357.692E-03
            2151            2388     333.692E-03     357.692E-03
            2157            2389     298.548E-03     319.328E-03
            2151            2389     298.548E-03     319.328E-03
            2152            2389     298.548E-03     319.328E-03
            2156            2389     298.548E-03     319.328E-03
            2158            2390     261.731E-03     269.991E-03
            2153            2390     261.731E-03     269.991E-03
            2152            2390     261.731E-03     269.991E-03
            2157            2390     261.731E-03     269.991E-03
            2159            2391     226.926E-03     227.064E-03
            2154            2391     226.926E-03     227.064E-03
            2158            2391     226.926E-03     227.064E-03
            2153            2391     226.926E-03     227.064E-03
            2161            2392     336.942E-03     335.174E-03
            2155            2392     336.942E-03     335.174E-03
            2156            2392     336.942E-03     335.174E-03
            2160            2392     336.942E-03     335.174E-03
            2162            2393     300.688E-03     294.313E-03
            2157            2393     300.688E-03     294.313E-03
            2161            2393     300.688E-03     294.313E-03
            2156            2393     300.688E-03     294.313E-03
            2163            2394     260.317E-03     251.852E-03
            2162            2394     260.317E-03     251.852E-03
            2158            2394     260.317E-03     251.852E-03
            2157            2394     260.317E-03     251.852E-03
            2159            2395     217.799E-03     212.259E-03
            2164            2395     217.799E-03     212.259E-03
            2163            2395     217.799E-03     212.259E-03
            2158            2395     217.799E-03     212.259E-03
            2160            2396     305.641E-03     281.288E-03
            2161            2396     305.641E-03     281.288E-03
            2166            2396     305.641E-03     281.288E-03
            2165            2396     305.641E-03     281.288E-03
            2162            2397     290.841E-03     272.072E-03
            2161            2397     290.841E-03     272.072E-03
            2166            2397     290.841E-03     272.072E-03
            2167            2397     290.841E-03     272.072E-03
            2162            2398     251.314E-03     238.215E-03
            2163            2398     251.314E-03     238.215E-03
            2167            2398     251.314E-03     238.215E-03
            2168            2398     251.314E-03     238.215E-03
            2164            2399     214.275E-03     211.304E-03
            2168            2399     214.275E-03     211.304E-03
            2169            2399     214.275E-03     211.304E-03
            2163            2399     214.275E-03     211.304E-03
            2171            2400     203.060E-03     198.063E-03
            2170            2400     203.060E-03     198.063E-03
            2176            2400     203.060E-03     198.063E-03
            2175            2400     203.060E-03     198.063E-03
            2172            2401     221.555E-03     215.154E-03
            2171            2401     221.555E-03     215.154E-03
            2176            2401     221.555E-03     215.154E-03
            2177            2401     221.555E-03     215.154E-03
            2172            2402     238.751E-03     234.488E-03
            2178            2402     238.751E-03     234.488E-03
            2173            2402     238.751E-03     234.488E-03
            2177            2402     238.751E-03     234.488E-03
            2179            2403     258.441E-03     258.692E-03
            2174            2403     258.441E-03     258.692E-03
            2173            2403     258.441E-03     258.692E-03
            2178            2403     258.441E-03     258.692E-03
            2180            2404     201.178E-03     198.069E-03
            2175            2404     201.178E-03     198.069E-03
            2181            2404     201.178E-03     198.069E-03
            2176            2404     201.178E-03     198.069E-03
            2182            2405     215.633E-03     204.056E-03
            2181            2405     215.633E-03     204.056E-03
            2176            2405     215.633E-03     204.056E-03
            2177            2405     215.633E-03     204.056E-03
            2178            2406     233.496E-03     215.290E-03
            2183            2406     233.496E-03     215.290E-03
            2182            2406     233.496E-03     215.290E-03
            2177            2406     233.496E-03     215.290E-03
            2179            2407     232.834E-03     208.329E-03
            2183            2407     232.834E-03     208.329E-03
            2178            2407     232.834E-03     208.329E-03
            2184            2407     232.834E-03     208.329E-03
            2181            2408     193.686E-03     197.694E-03
            2185            2408     193.686E-03     197.694E-03
            2186            2408     193.686E-03     197.694E-03
            2180            2408     193.686E-03     197.694E-03
            2187            2409     192.068E-03     208.275E-03
            2182            2409     192.068E-03     208.275E-03
            2181            2409     192.068E-03     208.275E-03
            2186            2409     192.068E-03     208.275E-03
            2188            2410     189.332E-03     226.953E-03
            2182            2410     189.332E-03     226.953E-03
            2187            2410     189.332E-03     226.953E-03
            2183            2410     189.332E-03     226.953E-03
            2189            2411     198.861E-03     237.519E-03
            2183            2411     198.861E-03     237.519E-03
            2184            2411     198.861E-03     237.519E-03
            2188            2411     198.861E-03     237.519E-03
            2190            2412     202.895E-03     197.481E-03
            2185            2412     202.895E-03     197.481E-03
            2191            2412     202.895E-03     197.481E-03
            2186            2412     202.895E-03     197.481E-03
            2187            2413     203.834E-03     196.937E-03
            2191            2413     203.834E-03     196.937E-03
            2186            2413     203.834E-03     196.937E-03
            2192            2413     203.834E-03     196.937E-03
            2193            2414     205.370E-03     202.978E-03
            2188            2414     205.370E-03     202.978E-03
            2192            2414     205.370E-03     202.978E-03
            2187            2414     205.370E-03     202.978E-03
            2188            2415     226.926E-03     227.309E-03
            2189            2415     226.926E-03     227.309E-03
            2193            2415     226.926E-03     227.309E-03
            2194            2415     226.926E-03     227.309E-03
            2190            2416     201.086E-03     198.477E-03
            2195            2416     201.086E-03     198.477E-03
            2196            2416     201.086E-03     198.477E-03
            2191            2416     201.086E-03     198.477E-03
            2196            2417     196.916E-03     187.440E-03
            2192            2417     196.916E-03     187.440E-03
            2197            2417     196.916E-03     187.440E-03
            2191            2417     196.916E-03     187.440E-03
            2197            2418     190.292E-03     179.249E-03
            2192            2418     190.292E-03     179.249E-03
            2198            2418     190.292E-03     179.249E-03
            2193            2418     190.292E-03     179.249E-03
            2199            2419     192.043E-03     182.167E-03
            2193            2419     192.043E-03     182.167E-03
            2194            2419     192.043E-03     182.167E-03
            2198            2419     192.043E-03     182.167E-03
            2195            2420     192.873E-03     195.109E-03
            2201            2420     192.873E-03     195.109E-03
            2200            2420     192.873E-03     195.109E-03
            2196            2420     192.873E-03     195.109E-03
            2197            2421     175.268E-03     180.860E-03
            2202            2421     175.268E-03     180.860E-03
            2196            2421     175.268E-03     180.860E-03
            2201            2421     175.268E-03     180.860E-03
            2202            2422     148.677E-03     160.781E-03
            2203            2422     148.677E-03     160.781E-03
            2197            2422     148.677E-03     160.781E-03
            2198            2422     148.677E-03     160.781E-03
            2203            2423     132.539E-03     147.120E-03
            2198            2423     132.539E-03     147.120E-03
            2204            2423     132.539E-03     147.120E-03
            2199            2423     132.539E-03     147.120E-03
            2200            2424     191.608E-03     190.961E-03
            2205            2424     191.608E-03     190.961E-03
            2206            2424     191.608E-03     190.961E-03
            2201            2424     191.608E-03     190.961E-03
            2207            2425     169.349E-03     168.661E-03
            2201            2425     169.349E-03     168.661E-03
            2206            2425     169.349E-03     168.661E-03
            2202            2425     169.349E-03     168.661E-03
            2203            2426     135.698E-03     131.018E-03
            2208            2426     135.698E-03     131.018E-03
            2202            2426     135.698E-03     131.018E-03
            2207            2426     135.698E-03     131.018E-03
            2209            2427     105.320E-03     97.4985E-03
            2204            2427     105.320E-03     97.4985E-03
            2208            2427     105.320E-03     97.4985E-03
            2203            2427     105.320E-03     97.4985E-03
            2205            2428     189.823E-03     189.052E-03
            2211            2428     189.823E-03     189.052E-03
            2206            2428     189.823E-03     189.052E-03
            2210            2428     189.823E-03     189.052E-03
            2211            2429     161.058E-03     163.938E-03
            2206            2429     161.058E-03     163.938E-03
            2212            2429     161.058E-03     163.938E-03
            2207            2429     161.058E-03     163.938E-03
            2213            2430     119.679E-03     122.877E-03
            2212            2430     119.679E-03     122.877E-03
            2207            2430     119.679E-03     122.877E-03
            2208            2430     119.679E-03     122.877E-03
            2208            2431     69.4033E-03     71.7633E-03
            2209            2431     69.4033E-03     71.7633E-03
            2214            2431     69.4033E-03     71.7633E-03
            2213            2431     69.4033E-03     71.7633E-03
            2216            2432     188.690E-03     186.615E-03
            2210            2432     188.690E-03     186.615E-03
            2211            2432     188.690E-03     186.615E-03
            2215            2432     188.690E-03     186.615E-03
            2212            2433     155.839E-03     158.009E-03
            2211            2433     155.839E-03     158.009E-03
            2216            2433     155.839E-03     158.009E-03
            2217            2433     155.839E-03     158.009E-03
            2218            2434     113.303E-03     117.334E-03
            2217            2434     113.303E-03     117.334E-03
            2212            2434     113.303E-03     117.334E-03
            2213            2434     113.303E-03     117.334E-03
            2213            2435     59.0052E-03     67.7936E-03
            2218            2435     59.0052E-03     67.7936E-03
            2219            2435     59.0052E-03     67.7936E-03
            2214            2435     59.0052E-03     67.7936E-03
            2220            2436     153.403E-03     152.568E-03
            2221            2436     153.403E-03     152.568E-03
            2216            2436     153.403E-03     152.568E-03
            2215            2436     153.403E-03     152.568E-03
            2217            2437     130.281E-03     130.426E-03
            2221            2437     130.281E-03     130.426E-03
            2216            2437     130.281E-03     130.426E-03
            2222            2437     130.281E-03     130.426E-03
            2222            2438     98.5295E-03     99.2018E-03
            2223            2438     98.5295E-03     99.2018E-03
            2218            2438     98.5295E-03     99.2018E-03
            2217            2438     98.5295E-03     99.2018E-03
            2219            2439     60.7921E-03     65.4869E-03
            2224            2439     60.7921E-03     65.4869E-03
            2223            2439     60.7921E-03     65.4869E-03
            2218            2439     60.7921E-03     65.4869E-03
            2727            2828     128.153E-03     133.344E-03
            2722            2828     128.153E-03     133.344E-03
            2721            2828     128.153E-03     133.344E-03
            2726            2828     128.153E-03     133.344E-03
            2728            2829     207.729E-03     219.587E-03
            2727            2829     207.729E-03     219.587E-03
            2723            2829     207.729E-03     219.587E-03
            2722            2829     207.729E-03     219.587E-03
            2728            2830     280.247E-03     300.325E-03
            2723            2830     280.247E-03     300.325E-03
            2729            2830     280.247E-03     300.325E-03
            2724            2830     280.247E-03     300.325E-03
            2724            2831     330.245E-03     347.984E-03
            2725            2831     330.245E-03     347.984E-03
            2730            2831     330.245E-03     347.984E-03
            2729            2831     330.245E-03     347.984E-03
            2726            2832     143.049E-03     148.365E-03
            2727            2832     143.049E-03     148.365E-03
            2732            2832     143.049E-03     148.365E-03
            2731            2832     143.049E-03     148.365E-03
            2732            2833     231.940E-03     237.273E-03
            2728            2833     231.940E-03     237.273E-03
            2733            2833     231.940E-03     237.273E-03
            2727            2833     231.940E-03     237.273E-03
            2734            2834     308.288E-03     321.103E-03
            2733            2834     308.288E-03     321.103E-03
            2728            2834     308.288E-03     321.103E-03
            2729            2834     308.288E-03     321.103E-03
            2729            2835     355.470E-03     366.172E-03
            2734            2835     355.470E-03     366.172E-03
            2730            2835     355.470E-03     366.172E-03
            2735            2835     355.470E-03     366.172E-03
            2731            2836     158.802E-03     153.347E-03
            2737            2836     158.802E-03     153.347E-03
            2732            2836     158.802E-03     153.347E-03
            2736            2836     158.802E-03     153.347E-03
            2732            2837     267.875E-03     245.691E-03
            2738            2837     267.875E-03     245.691E-03
            2737            2837     267.875E-03     245.691E-03
            2733            2837     267.875E-03     245.691E-03
            2734            2838     352.766E-03     324.844E-03
            2738            2838     352.766E-03     324.844E-03
            2739            2838     352.766E-03     324.844E-03
            2733            2838     352.766E-03     324.844E-03
            2734            2839     399.040E-03     372.918E-03
            2739            2839     399.040E-03     372.918E-03
            2740            2839     399.040E-03     372.918E-03
            2735            2839     399.040E-03     372.918E-03
            2737            2840     152.868E-03     151.153E-03
            2741            2840     152.868E-03     151.153E-03
            2736            2840     152.868E-03     151.153E-03
            2742            2840     152.868E-03     151.153E-03
            2743            2841     252.376E-03     250.701E-03
            2737            2841     252.376E-03     250.701E-03
            2738            2841     252.376E-03     250.701E-03
            2742            2841     252.376E-03     250.701E-03
            2743            2842     334.711E-03     340.461E-03
            2744            2842     334.711E-03     340.461E-03
            2738            2842     334.711E-03     340.461E-03
            2739            2842     334.711E-03     340.461E-03
            2744            2843     397.295E-03     405.122E-03
            2739            2843     397.295E-03     405.122E-03
            2740            2843     397.295E-03     405.122E-03
            2745            2843     397.295E-03     405.122E-03
            2764            2854     258.441E-03     258.692E-03
            2765            2854     258.441E-03     258.692E-03
            2769            2854     258.441E-03     258.692E-03
            2770            2854     258.441E-03     258.692E-03
            2771            2855     238.751E-03     234.488E-03
            2765            2855     238.751E-03     234.488E-03
            2770            2855     238.751E-03     234.488E-03
            2766            2855     238.751E-03     234.488E-03
            2772            2856     221.555E-03     215.154E-03
            2766            2856     221.555E-03     215.154E-03
            2767            2856     221.555E-03     215.154E-03
            2771            2856     221.555E-03     215.154E-03
            2772            2857     203.060E-03     198.063E-03
            2767            2857     203.060E-03     198.063E-03
            2768            2857     203.060E-03     198.063E-03
            2773            2857     203.060E-03     198.063E-03
            2769            2858     232.834E-03     208.329E-03
            2775            2858     232.834E-03     208.329E-03
            2770            2858     232.834E-03     208.329E-03
            2774            2858     232.834E-03     208.329E-03
            2776            2859     233.496E-03     215.290E-03
            2775            2859     233.496E-03     215.290E-03
            2771            2859     233.496E-03     215.290E-03
            2770            2859     233.496E-03     215.290E-03
            2771            2860     215.633E-03     204.056E-03
            2776            2860     215.633E-03     204.056E-03
            2772            2860     215.633E-03     204.056E-03
            2777            2860     215.633E-03     204.056E-03
            2773            2861     201.178E-03     198.069E-03
            2772            2861     201.178E-03     198.069E-03
            2778            2861     201.178E-03     198.069E-03
            2777            2861     201.178E-03     198.069E-03
            2774            2862     198.861E-03     237.519E-03
            2780            2862     198.861E-03     237.519E-03
            2775            2862     198.861E-03     237.519E-03
            2779            2862     198.861E-03     237.519E-03
            2775            2863     189.332E-03     226.953E-03
            2781            2863     189.332E-03     226.953E-03
            2780            2863     189.332E-03     226.953E-03
            2776            2863     189.332E-03     226.953E-03
            2781            2864     192.068E-03     208.275E-03
            2777            2864     192.068E-03     208.275E-03
            2782            2864     192.068E-03     208.275E-03
            2776            2864     192.068E-03     208.275E-03
            2782            2865     193.686E-03     197.694E-03
            2777            2865     193.686E-03     197.694E-03
            2783            2865     193.686E-03     197.694E-03
            2778            2865     193.686E-03     197.694E-03
            2785            2866     226.926E-03     227.309E-03
            2784            2866     226.926E-03     227.309E-03
            2779            2866     226.926E-03     227.309E-03
            2780            2866     226.926E-03     227.309E-03
            2785            2867     205.370E-03     202.978E-03
            2780            2867     205.370E-03     202.978E-03
            2781            2867     205.370E-03     202.978E-03
            2786            2867     205.370E-03     202.978E-03
            2787            2868     203.834E-03     196.937E-03
            2786            2868     203.834E-03     196.937E-03
            2781            2868     203.834E-03     196.937E-03
            2782            2868     203.834E-03     196.937E-03
            2782            2869     202.895E-03     197.481E-03
            2783            2869     202.895E-03     197.481E-03
            2787            2869     202.895E-03     197.481E-03
            2788            2869     202.895E-03     197.481E-03
            2789            2870     192.043E-03     182.167E-03
            2790            2870     192.043E-03     182.167E-03
            2785            2870     192.043E-03     182.167E-03
            2784            2870     192.043E-03     182.167E-03
            2786            2871     190.292E-03     179.249E-03
            2790            2871     190.292E-03     179.249E-03
            2791            2871     190.292E-03     179.249E-03
            2785            2871     190.292E-03     179.249E-03
            2787            2872     196.916E-03     187.440E-03
            2786            2872     196.916E-03     187.440E-03
            2792            2872     196.916E-03     187.440E-03
            2791            2872     196.916E-03     187.440E-03
            2788            2873     201.086E-03     198.477E-03
            2793            2873     201.086E-03     198.477E-03
            2787            2873     201.086E-03     198.477E-03
            2792            2873     201.086E-03     198.477E-03
            2794            2874     132.539E-03     147.120E-03
            2789            2874     132.539E-03     147.120E-03
            2790            2874     132.539E-03     147.120E-03
            2795            2874     132.539E-03     147.120E-03
            2796            2875     148.677E-03     160.781E-03
            2791            2875     148.677E-03     160.781E-03
            2795            2875     148.677E-03     160.781E-03
            2790            2875     148.677E-03     160.781E-03
            2791            2876     175.268E-03     180.860E-03
            2797            2876     175.268E-03     180.860E-03
            2796            2876     175.268E-03     180.860E-03
            2792            2876     175.268E-03     180.860E-03
            2792            2877     192.873E-03     195.109E-03
            2798            2877     192.873E-03     195.109E-03
            2793            2877     192.873E-03     195.109E-03
            2797            2877     192.873E-03     195.109E-03
            2795            2878     105.320E-03     97.4985E-03
            2800            2878     105.320E-03     97.4985E-03
            2799            2878     105.320E-03     97.4985E-03
            2794            2878     105.320E-03     97.4985E-03
            2800            2879     135.698E-03     131.018E-03
            2795            2879     135.698E-03     131.018E-03
            2801            2879     135.698E-03     131.018E-03
            2796            2879     135.698E-03     131.018E-03
            2797            2880     169.349E-03     168.661E-03
            2801            2880     169.349E-03     168.661E-03
            2802            2880     169.349E-03     168.661E-03
            2796            2880     169.349E-03     168.661E-03
            2803            2881     191.608E-03     190.961E-03
            2802            2881     191.608E-03     190.961E-03
            2797            2881     191.608E-03     190.961E-03
            2798            2881     191.608E-03     190.961E-03
            2800            2882     69.4033E-03     71.7633E-03
            2804            2882     69.4033E-03     71.7633E-03
            2805            2882     69.4033E-03     71.7633E-03
            2799            2882     69.4033E-03     71.7633E-03
            2801            2883     119.679E-03     122.877E-03
            2805            2883     119.679E-03     122.877E-03
            2806            2883     119.679E-03     122.877E-03
            2800            2883     119.679E-03     122.877E-03
            2807            2884     161.058E-03     163.938E-03
            2801            2884     161.058E-03     163.938E-03
            2806            2884     161.058E-03     163.938E-03
            2802            2884     161.058E-03     163.938E-03
            2808            2885     189.823E-03     189.052E-03
            2802            2885     189.823E-03     189.052E-03
            2803            2885     189.823E-03     189.052E-03
            2807            2885     189.823E-03     189.052E-03
            2810            2886     59.0052E-03     67.7936E-03
            2804            2886     59.0052E-03     67.7936E-03
            2809            2886     59.0052E-03     67.7936E-03
            2805            2886     59.0052E-03     67.7936E-03
            2811            2887     113.303E-03     117.334E-03
            2806            2887     113.303E-03     117.334E-03
            2805            2887     113.303E-03     117.334E-03
            2810            2887     113.303E-03     117.334E-03
            2812            2888     155.839E-03     158.009E-03
            2806            2888     155.839E-03     158.009E-03
            2807            2888     155.839E-03     158.009E-03
            2811            2888     155.839E-03     158.009E-03
            2812            2889     188.690E-03     186.615E-03
            2813            2889     188.690E-03     186.615E-03
            2808            2889     188.690E-03     186.615E-03
            2807            2889     188.690E-03     186.615E-03
            2814            2890     60.7921E-03     65.4869E-03
            2815            2890     60.7921E-03     65.4869E-03
            2810            2890     60.7921E-03     65.4869E-03
            2809            2890     60.7921E-03     65.4869E-03
            2816            2891     98.5295E-03     99.2018E-03
            2810            2891     98.5295E-03     99.2018E-03
            2811            2891     98.5295E-03     99.2018E-03
            2815            2891     98.5295E-03     99.2018E-03
            2816            2892     130.281E-03     130.426E-03
            2817            2892     130.281E-03     130.426E-03
            2811            2892     130.281E-03     130.426E-03
            2812            2892     130.281E-03     130.426E-03
            2817            2893     153.403E-03     152.568E-03
            2813            2893     153.403E-03     152.568E-03
            2818            2893     153.403E-03     152.568E-03
            2812            2893     153.403E-03     152.568E-03
            2858            2912     21.8247E-15     21.8962E-15
            2853            2912     21.8247E-15     21.8962E-15
            2852            2912     21.8247E-15     21.8962E-15
            2857            2912     21.8247E-15     21.8962E-15
            2854            2913     14.7536E-15     14.9953E-15
            2853            2913     14.7536E-15     14.9953E-15
            2858            2913     14.7536E-15     14.9953E-15
            2859            2913     14.7536E-15     14.9953E-15
            2854            2914     22.8382E-15     21.3277E-15
            2860            2914     22.8382E-15     21.3277E-15
            2859            2914     22.8382E-15     21.3277E-15
            2855            2914     22.8382E-15     21.3277E-15
            2856            2915     20.5369E-15     19.1823E-15
            2860            2915     20.5369E-15     19.1823E-15
            2861            2915     20.5369E-15     19.1823E-15
            2855            2915     20.5369E-15     19.1823E-15
            2858            2916     17.8363E-15     18.0693E-15
            2863            2916     17.8363E-15     18.0693E-15
            2862            2916     17.8363E-15     18.0693E-15
            2857            2916     17.8363E-15     18.0693E-15
            2858            2917     13.8391E-15     15.6331E-15
            2864            2917     13.8391E-15     15.6331E-15
            2863            2917     13.8391E-15     15.6331E-15
            2859            2917     13.8391E-15     15.6331E-15
            2859            2918     20.6007E-15     20.8722E-15
            2860            2918     20.6007E-15     20.8722E-15
            2865            2918     20.6007E-15     20.8722E-15
            2864            2918     20.6007E-15     20.8722E-15
            2865            2919     18.4821E-15     17.0156E-15
            2866            2919     18.4821E-15     17.0156E-15
            2861            2919     18.4821E-15     17.0156E-15
            2860            2919     18.4821E-15     17.0156E-15
            2863            2920     19.7553E-15     17.9386E-15
            2862            2920     19.7553E-15     17.9386E-15
            2868            2920     19.7553E-15     17.9386E-15
            2867            2920     19.7553E-15     17.9386E-15
            2863            2921     14.4960E-15     15.1209E-15
            2864            2921     14.4960E-15     15.1209E-15
            2868            2921     14.4960E-15     15.1209E-15
            2869            2921     14.4960E-15     15.1209E-15
            2865            2922     18.5669E-15     22.1624E-15
            2870            2922     18.5669E-15     22.1624E-15
            2869            2922     18.5669E-15     22.1624E-15
            2864            2922     18.5669E-15     22.1624E-15
            2871            2923     18.6389E-15     17.9941E-15
            2870            2923     18.6389E-15     17.9941E-15
            2865            2923     18.6389E-15     17.9941E-15
            2866            2923     18.6389E-15     17.9941E-15
            2868            2924     24.7552E-15     19.3797E-15
            2867            2924     24.7552E-15     19.3797E-15
            2873            2924     24.7552E-15     19.3797E-15
            2872            2924     24.7552E-15     19.3797E-15
            2873            2925     13.9604E-15     9.59304E-15
            2868            2925     13.9604E-15     9.59304E-15
            2869            2925     13.9604E-15     9.59304E-15
            2874            2925     13.9604E-15     9.59304E-15
            2875            2926     18.3007E-15     21.6703E-15
            2870            2926     18.3007E-15     21.6703E-15
            2874            2926     18.3007E-15     21.6703E-15
            2869            2926     18.3007E-15     21.6703E-15
            2870            2927     17.7197E-15     20.1130E-15
            2876            2927     17.7197E-15     20.1130E-15
            2871            2927     17.7197E-15     20.1130E-15
            2875            2927     17.7197E-15     20.1130E-15
            2877            2928     28.5782E-15     24.1172E-15
            2873            2928     28.5782E-15     24.1172E-15
            2878            2928     28.5782E-15     24.1172E-15
            2872            2928     28.5782E-15     24.1172E-15
            2873            2929     24.1106E-15     19.0898E-15
            2874            2929     24.1106E-15     19.0898E-15
            2879            2929     24.1106E-15     19.0898E-15
            2878            2929     24.1106E-15     19.0898E-15
            2879            2930     20.8618E-15     21.6245E-15
            2880            2930     20.8618E-15     21.6245E-15
            2874            2930     20.8618E-15     21.6245E-15
            2875            2930     20.8618E-15     21.6245E-15
            2876            2931     16.1501E-15     19.2678E-15
            2881            2931     16.1501E-15     19.2678E-15
            2880            2931     16.1501E-15     19.2678E-15
            2875            2931     16.1501E-15     19.2678E-15
            3192            3177     21.2417E-15     21.2109E-15
            3187            3177     21.2417E-15     21.2109E-15
            3188            3177     21.2417E-15     21.2109E-15
            3193            3177     21.2417E-15     21.2109E-15
            3193            3178     23.2430E-15     24.2910E-15
            3189            3178     23.2430E-15     24.2910E-15
            3188            3178     23.2430E-15     24.2910E-15
            3194            3178     23.2430E-15     24.2910E-15
            3194            3179     17.9988E-15     20.2380E-15
            3190            3179     17.9988E-15     20.2380E-15
            3195            3179     17.9988E-15     20.2380E-15
            3189            3179     17.9988E-15     20.2380E-15
            3195            3180     26.6273E-15     26.4840E-15
            3196            3180     26.6273E-15     26.4840E-15
            3190            3180     26.6273E-15     26.4840E-15
            3191            3180     26.6273E-15     26.4840E-15
            3198            3181     19.3300E-15     21.4562E-15
            3193            3181     19.3300E-15     21.4562E-15
            3197            3181     19.3300E-15     21.4562E-15
            3192            3181     19.3300E-15     21.4562E-15
            3194            3182     23.6358E-15     24.8469E-15
            3198            3182     23.6358E-15     24.8469E-15
            3193            3182     23.6358E-15     24.8469E-15
            3199            3182     23.6358E-15     24.8469E-15
            3199            3183     20.5616E-15     21.2932E-15
            3194            3183     20.5616E-15     21.2932E-15
            3200            3183     20.5616E-15     21.2932E-15
            3195            3183     20.5616E-15     21.2932E-15
            3200            3184     20.2680E-15     19.5257E-15
            3201            3184     20.2680E-15     19.5257E-15
            3195            3184     20.2680E-15     19.5257E-15
            3196            3184     20.2680E-15     19.5257E-15
            3203            3185     14.5419E-15     17.8498E-15
            3202            3185     14.5419E-15     17.8498E-15
            3197            3185     14.5419E-15     17.8498E-15
            3198            3185     14.5419E-15     17.8498E-15
            3199            3186     16.3729E-15     18.8890E-15
            3203            3186     16.3729E-15     18.8890E-15
            3204            3186     16.3729E-15     18.8890E-15
            3198            3186     16.3729E-15     18.8890E-15
            3204            3187     15.1675E-15     10.8488E-15
            3199            3187     15.1675E-15     10.8488E-15
            3200            3187     15.1675E-15     10.8488E-15
            3205            3187     15.1675E-15     10.8488E-15
            3205            3188     13.8003E-15     9.24849E-15
            3200            3188     13.8003E-15     9.24849E-15
            3201            3188     13.8003E-15     9.24849E-15
            3206            3188     13.8003E-15     9.24849E-15
            3203            3189     11.3174E-15     12.0746E-15
            3208            3189     11.3174E-15     12.0746E-15
            3202            3189     11.3174E-15     12.0746E-15
            3207            3189     11.3174E-15     12.0746E-15
            3203            3190     13.7516E-15     19.0801E-15
            3204            3190     13.7516E-15     19.0801E-15
            3208            3190     13.7516E-15     19.0801E-15
            3209            3190     13.7516E-15     19.0801E-15
            3205            3191     13.0711E-15     13.3342E-15
            3209            3191     13.0711E-15     13.3342E-15
            3210            3191     13.0711E-15     13.3342E-15
            3204            3191     13.0711E-15     13.3342E-15
            3210            3192     13.4456E-15     9.50471E-15
            3206            3192     13.4456E-15     9.50471E-15
            3205            3192     13.4456E-15     9.50471E-15
            3211            3192     13.4456E-15     9.50471E-15
            3213            3193     12.5816E-15     14.5498E-15
            3212            3193     12.5816E-15     14.5498E-15
            3207            3193     12.5816E-15     14.5498E-15
            3208            3193     12.5816E-15     14.5498E-15
            3214            3194     15.9779E-15     24.8843E-15
            3208            3194     15.9779E-15     24.8843E-15
            3213            3194     15.9779E-15     24.8843E-15
            3209            3194     15.9779E-15     24.8843E-15
            3214            3195     17.4918E-15     22.2692E-15
            3209            3195     17.4918E-15     22.2692E-15
            3210            3195     17.4918E-15     22.2692E-15
            3215            3195     17.4918E-15     22.2692E-15
            3215            3196     21.8438E-15     19.8154E-15
            3210            3196     21.8438E-15     19.8154E-15
            3211            3196     21.8438E-15     19.8154E-15
            3216            3196     21.8438E-15     19.8154E-15


  Minimum                            8.57721E-15     7.39868E-15
      At Element                            3207            3207
            Node                             610             610

  Maximum                            427.342E-03     449.293E-03
      At Element                            2745            2745
            Node                             389              20

           Total                         373.981         379.307


Field Output reported at element nodes for region: CRJ700-1.Region_2
   Computation algorithm: EXTRAPOLATE_COMPUTE_AVERAGE
   Averaged at nodes
   Averaging regions: ODB_REGIONS

   Element Label      Node Label         S.Mises         S.Mises
                                          @Loc 1          @Loc 2
-----------------------------------------------------------------
            2030               2     20.6765E-03     20.5239E-03
             841               2     20.6765E-03     20.5239E-03
             981               3     322.270E-03     310.086E-03
            2129               3     322.270E-03     310.086E-03
             963               5     20.6765E-03     20.5239E-03
             859               5     20.6765E-03     20.5239E-03
             978               6     6.87968E-15     6.76673E-15
             856               9     4.76605E-15     5.29694E-15
            2225              11     322.270E-03     310.086E-03
             958              11     322.270E-03     310.086E-03
             861              13     20.5697E-03     20.4163E-03
            2028              13     20.5697E-03     20.4163E-03
             843              13     20.5697E-03     20.4163E-03
             961              13     20.5697E-03     20.4163E-03
             976              14     5.73670E-15     6.38170E-15
             858              14     5.73670E-15     6.38170E-15
            2227              15     76.2905E-03     76.6475E-03
             960              15     76.2905E-03     76.6475E-03
            2127              15     76.2905E-03     76.6475E-03
             979              15     76.2905E-03     76.6475E-03
            2839              16     394.373E-03     383.507E-03
             993              16     394.373E-03     383.507E-03
             991              17     126.406E-03     126.522E-03
            2239              17     126.406E-03     126.522E-03
            2837              17     126.406E-03     126.522E-03
            2132              17     126.406E-03     126.522E-03
            2130              20     394.373E-03     383.507E-03
            2237              20     394.373E-03     383.507E-03
            2242              21     275.696E-03     265.364E-03
            2851              21     275.696E-03     265.364E-03
            2882              23     275.696E-03     265.364E-03
            2142              23     275.696E-03     265.364E-03
            2849              25     206.090E-03     206.190E-03
            2884              25     206.090E-03     206.190E-03
            2144              25     206.090E-03     206.190E-03
            2240              25     206.090E-03     206.190E-03
            2746              26     50.3730E-03     50.0010E-03
            2912              26     50.3730E-03     50.0010E-03
            2272              28     50.3730E-03     50.0010E-03
            2821              28     50.3730E-03     50.0010E-03
            2914              29     50.1244E-03     49.7505E-03
            2819              29     50.1244E-03     49.7505E-03
            2748              29     50.1244E-03     49.7505E-03
            2270              29     50.1244E-03     49.7505E-03
            2836              31     3.65396E-15     4.45308E-15
            2763              33     4.88402E-15     3.97245E-15
            2834              33     4.88402E-15     3.97245E-15
            2761              34     9.83239E-15     3.98484E-15
            2033              51     49.9833E-03     50.0434E-03
            2030              51     49.9833E-03     50.0434E-03
            2036              52     57.0785E-03     58.4638E-03
            2033              52     57.0785E-03     58.4638E-03
            2036              53     56.6914E-03     58.3492E-03
            2039              53     56.6914E-03     58.3492E-03
            2039              54     63.5135E-03     63.8739E-03
            2042              54     63.5135E-03     63.8739E-03
            2042              55     73.5104E-03     73.3017E-03
            2045              55     73.5104E-03     73.3017E-03
            2048              56     86.9666E-03     86.6708E-03
            2045              56     86.9666E-03     86.6708E-03
            2051              57     106.595E-03     104.492E-03
            2048              57     106.595E-03     104.492E-03
            2054              58     95.3199E-03     90.5321E-03
            2051              58     95.3199E-03     90.5321E-03
            2057              59     83.1731E-03     82.8128E-03
            2054              59     83.1731E-03     82.8128E-03
            2057              60     100.939E-03     103.558E-03
            2060              60     100.939E-03     103.558E-03
            2060              61     116.029E-03     116.043E-03
            2063              61     116.029E-03     116.043E-03
            2063              62     133.065E-03     133.257E-03
            2066              62     133.065E-03     133.257E-03
            2069              63     154.511E-03     150.483E-03
            2066              63     154.511E-03     150.483E-03
            2069              64     140.986E-03     130.108E-03
            2072              64     140.986E-03     130.108E-03
            2075              65     128.073E-03     125.079E-03
            2072              65     128.073E-03     125.079E-03
            2075              66     149.202E-03     152.353E-03
            2078              66     149.202E-03     152.353E-03
            2078              67     166.055E-03     165.544E-03
            2081              67     166.055E-03     165.544E-03
            2081              68     181.250E-03     180.088E-03
            2084              68     181.250E-03     180.088E-03
            2084              69     198.694E-03     198.452E-03
            2087              69     198.694E-03     198.452E-03
            2087              70     219.900E-03     213.530E-03
            2090              70     219.900E-03     213.530E-03
            2090              71     203.718E-03     186.643E-03
            2093              71     203.718E-03     186.643E-03
            2096              72     189.314E-03     183.901E-03
            2093              72     189.314E-03     183.901E-03
            2096              73     212.240E-03     215.791E-03
            2099              73     212.240E-03     215.791E-03
            2102              74     229.699E-03     228.750E-03
            2099              74     229.699E-03     228.750E-03
            2102              75     245.234E-03     243.640E-03
            2105              75     245.234E-03     243.640E-03
            2105              76     263.008E-03     263.097E-03
            2108              76     263.008E-03     263.097E-03
            2111              77     283.900E-03     275.361E-03
            2108              77     283.900E-03     275.361E-03
            2111              78     267.058E-03     245.110E-03
            2114              78     267.058E-03     245.110E-03
            2114              79     254.466E-03     247.539E-03
            2117              79     254.466E-03     247.539E-03
            2120              80     279.020E-03     283.681E-03
            2117              80     279.020E-03     283.681E-03
            2123              81     295.925E-03     295.374E-03
            2120              81     295.925E-03     295.374E-03
            2123              82     314.798E-03     316.758E-03
            2126              82     314.798E-03     316.758E-03
            2126              83     335.824E-03     325.973E-03
            2129              83     335.824E-03     325.973E-03
             966             147     1.94309E-15     2.97899E-15
             963             147     1.94309E-15     2.97899E-15
             969             148     3.16101E-15     3.21827E-15
             966             148     3.16101E-15     3.21827E-15
             972             149     3.88210E-15     3.75154E-15
             969             149     3.88210E-15     3.75154E-15
             972             150     4.30728E-15     2.75466E-15
             975             150     4.30728E-15     2.75466E-15
             975             151     6.24089E-15     4.19937E-15
             978             151     6.24089E-15     4.19937E-15
             841             176     4.51551E-15     2.26858E-15
             844             176     4.51551E-15     2.26858E-15
             847             177     3.48743E-15     1.74426E-15
             844             177     3.48743E-15     1.74426E-15
             847             178     2.71495E-15     2.78376E-15
             850             178     2.71495E-15     2.78376E-15
             853             179     2.55437E-15     3.55584E-15
             850             179     2.55437E-15     3.55584E-15
             856             180     3.30470E-15     4.13394E-15
             853             180     3.30470E-15     4.13394E-15
             859             194     49.9833E-03     50.0434E-03
             862             194     49.9833E-03     50.0434E-03
             865             195     57.0785E-03     58.4638E-03
             862             195     57.0785E-03     58.4638E-03
             865             196     56.6914E-03     58.3492E-03
             868             196     56.6914E-03     58.3492E-03
             868             197     63.5135E-03     63.8739E-03
             871             197     63.5135E-03     63.8739E-03
             871             198     73.5104E-03     73.3017E-03
             874             198     73.5104E-03     73.3017E-03
             874             199     86.9666E-03     86.6708E-03
             877             199     86.9666E-03     86.6708E-03
             877             200     106.595E-03     104.492E-03
             880             200     106.595E-03     104.492E-03
             883             201     95.3199E-03     90.5321E-03
             880             201     95.3199E-03     90.5321E-03
             886             202     83.1731E-03     82.8128E-03
             883             202     83.1731E-03     82.8128E-03
             886             203     100.939E-03     103.558E-03
             889             203     100.939E-03     103.558E-03
             892             204     116.029E-03     116.043E-03
             889             204     116.029E-03     116.043E-03
             892             205     133.065E-03     133.257E-03
             895             205     133.065E-03     133.257E-03
             895             206     154.511E-03     150.483E-03
             898             206     154.511E-03     150.483E-03
             898             207     140.986E-03     130.108E-03
             901             207     140.986E-03     130.108E-03
             901             208     128.073E-03     125.079E-03
             904             208     128.073E-03     125.079E-03
             904             209     149.202E-03     152.353E-03
             907             209     149.202E-03     152.353E-03
             910             210     166.055E-03     165.544E-03
             907             210     166.055E-03     165.544E-03
             913             211     181.250E-03     180.088E-03
             910             211     181.250E-03     180.088E-03
             913             212     198.694E-03     198.452E-03
             916             212     198.694E-03     198.452E-03
             916             213     219.900E-03     213.530E-03
             919             213     219.900E-03     213.530E-03
             919             214     203.718E-03     186.643E-03
             922             214     203.718E-03     186.643E-03
             925             215     189.314E-03     183.901E-03
             922             215     189.314E-03     183.901E-03
             928             216     212.240E-03     215.791E-03
             925             216     212.240E-03     215.791E-03
             931             217     229.699E-03     228.750E-03
             928             217     229.699E-03     228.750E-03
             934             218     245.234E-03     243.640E-03
             931             218     245.234E-03     243.640E-03
             934             219     263.008E-03     263.097E-03
             937             219     263.008E-03     263.097E-03
             937             220     283.900E-03     275.361E-03
             940             220     283.900E-03     275.361E-03
             943             221     267.058E-03     245.110E-03
             940             221     267.058E-03     245.110E-03
             946             222     254.466E-03     247.539E-03
             943             222     254.466E-03     247.539E-03
             946             223     279.020E-03     283.681E-03
             949             223     279.020E-03     283.681E-03
             949             224     295.925E-03     295.374E-03
             952             224     295.925E-03     295.374E-03
             955             225     314.798E-03     316.758E-03
             952             225     314.798E-03     316.758E-03
             958             226     335.824E-03     325.973E-03
             955             226     335.824E-03     325.973E-03
             842             264     20.6409E-03     20.4881E-03
            2030             264     20.6409E-03     20.4881E-03
             841             264     20.6409E-03     20.4881E-03
            2029             264     20.6409E-03     20.4881E-03
             843             265     20.5875E-03     20.4342E-03
            2029             265     20.5875E-03     20.4342E-03
            2028             265     20.5875E-03     20.4342E-03
             842             265     20.5875E-03     20.4342E-03
             846             266     707.446E-18     1.85579E-15
             964             266     707.446E-18     1.85579E-15
             961             266     707.446E-18     1.85579E-15
             843             266     707.446E-18     1.85579E-15
             964             267     696.589E-18     1.70174E-15
             846             267     696.589E-18     1.70174E-15
             967             267     696.589E-18     1.70174E-15
             849             267     696.589E-18     1.70174E-15
             967             268     1.43123E-15     1.35459E-15
             852             268     1.43123E-15     1.35459E-15
             970             268     1.43123E-15     1.35459E-15
             849             268     1.43123E-15     1.35459E-15
             855             269     1.78082E-15     1.23826E-15
             973             269     1.78082E-15     1.23826E-15
             970             269     1.78082E-15     1.23826E-15
             852             269     1.78082E-15     1.23826E-15
             858             270     3.75773E-15     3.82420E-15
             855             270     3.75773E-15     3.82420E-15
             976             270     3.75773E-15     3.82420E-15
             973             270     3.75773E-15     3.82420E-15
             858             271     5.81101E-15     5.80888E-15
             857             271     5.81101E-15     5.80888E-15
             856             272     5.23332E-15     5.35219E-15
             857             272     5.23332E-15     5.35219E-15
             860             273     20.6409E-03     20.4881E-03
             962             273     20.6409E-03     20.4881E-03
             963             273     20.6409E-03     20.4881E-03
             859             273     20.6409E-03     20.4881E-03
             962             274     20.5875E-03     20.4342E-03
             861             274     20.5875E-03     20.4342E-03
             860             274     20.5875E-03     20.4342E-03
             961             274     20.5875E-03     20.4342E-03
             864             275     61.4554E-03     60.7804E-03
            2028             275     61.4554E-03     60.7804E-03
             861             275     61.4554E-03     60.7804E-03
            2031             275     61.4554E-03     60.7804E-03
             864             276     84.1314E-03     82.5958E-03
            2031             276     84.1314E-03     82.5958E-03
             867             276     84.1314E-03     82.5958E-03
            2034             276     84.1314E-03     82.5958E-03
            2034             277     88.6818E-03     86.8598E-03
            2037             277     88.6818E-03     86.8598E-03
             867             277     88.6818E-03     86.8598E-03
             870             277     88.6818E-03     86.8598E-03
            2040             278     91.8104E-03     90.8680E-03
             873             278     91.8104E-03     90.8680E-03
            2037             278     91.8104E-03     90.8680E-03
             870             278     91.8104E-03     90.8680E-03
             876             279     92.5037E-03     93.2667E-03
             873             279     92.5037E-03     93.2667E-03
            2043             279     92.5037E-03     93.2667E-03
            2040             279     92.5037E-03     93.2667E-03
             876             280     88.8967E-03     90.9693E-03
             879             280     88.8967E-03     90.9693E-03
            2043             280     88.8967E-03     90.9693E-03
            2046             280     88.8967E-03     90.9693E-03
            2049             281     80.8523E-03     82.4408E-03
             882             281     80.8523E-03     82.4408E-03
            2046             281     80.8523E-03     82.4408E-03
             879             281     80.8523E-03     82.4408E-03
             882             282     82.8692E-03     82.0059E-03
            2052             282     82.8692E-03     82.0059E-03
            2049             282     82.8692E-03     82.0059E-03
             885             282     82.8692E-03     82.0059E-03
             888             283     89.4239E-03     85.8613E-03
             885             283     89.4239E-03     85.8613E-03
            2052             283     89.4239E-03     85.8613E-03
            2055             283     89.4239E-03     85.8613E-03
            2055             284     91.3833E-03     87.8332E-03
             891             284     91.3833E-03     87.8332E-03
            2058             284     91.3833E-03     87.8332E-03
             888             284     91.3833E-03     87.8332E-03
             891             285     94.1974E-03     94.6270E-03
            2058             285     94.1974E-03     94.6270E-03
             894             285     94.1974E-03     94.6270E-03
            2061             285     94.1974E-03     94.6270E-03
             897             286     90.6818E-03     94.7515E-03
            2061             286     90.6818E-03     94.7515E-03
            2064             286     90.6818E-03     94.7515E-03
             894             286     90.6818E-03     94.7515E-03
            2064             287     80.4936E-03     83.6514E-03
            2067             287     80.4936E-03     83.6514E-03
             900             287     80.4936E-03     83.6514E-03
             897             287     80.4936E-03     83.6514E-03
             903             288     84.7524E-03     83.2241E-03
            2067             288     84.7524E-03     83.2241E-03
             900             288     84.7524E-03     83.2241E-03
            2070             288     84.7524E-03     83.2241E-03
             903             289     93.9107E-03     87.5043E-03
             906             289     93.9107E-03     87.5043E-03
            2070             289     93.9107E-03     87.5043E-03
            2073             289     93.9107E-03     87.5043E-03
             909             290     93.8846E-03     87.2232E-03
            2076             290     93.8846E-03     87.2232E-03
             906             290     93.8846E-03     87.2232E-03
            2073             290     93.8846E-03     87.2232E-03
            2079             291     96.5070E-03     94.1043E-03
            2076             291     96.5070E-03     94.1043E-03
             909             291     96.5070E-03     94.1043E-03
             912             291     96.5070E-03     94.1043E-03
             915             292     99.0403E-03     102.787E-03
            2082             292     99.0403E-03     102.787E-03
            2079             292     99.0403E-03     102.787E-03
             912             292     99.0403E-03     102.787E-03
            2082             293     94.6612E-03     102.209E-03
             918             293     94.6612E-03     102.209E-03
            2085             293     94.6612E-03     102.209E-03
             915             293     94.6612E-03     102.209E-03
             918             294     82.0154E-03     86.9543E-03
            2085             294     82.0154E-03     86.9543E-03
            2088             294     82.0154E-03     86.9543E-03
             921             294     82.0154E-03     86.9543E-03
            2088             295     89.2928E-03     86.9041E-03
            2091             295     89.2928E-03     86.9041E-03
             921             295     89.2928E-03     86.9041E-03
             924             295     89.2928E-03     86.9041E-03
             924             296     101.129E-03     92.2178E-03
            2094             296     101.129E-03     92.2178E-03
            2091             296     101.129E-03     92.2178E-03
             927             296     101.129E-03     92.2178E-03
             927             297     99.0912E-03     90.4953E-03
            2097             297     99.0912E-03     90.4953E-03
             930             297     99.0912E-03     90.4953E-03
            2094             297     99.0912E-03     90.4953E-03
             933             298     101.556E-03     98.9427E-03
            2100             298     101.556E-03     98.9427E-03
            2097             298     101.556E-03     98.9427E-03
             930             298     101.556E-03     98.9427E-03
             933             299     104.907E-03     110.331E-03
            2103             299     104.907E-03     110.331E-03
            2100             299     104.907E-03     110.331E-03
             936             299     104.907E-03     110.331E-03
             939             300     100.109E-03     110.274E-03
            2103             300     100.109E-03     110.274E-03
            2106             300     100.109E-03     110.274E-03
             936             300     100.109E-03     110.274E-03
            2106             301     85.5050E-03     91.5108E-03
             942             301     85.5050E-03     91.5108E-03
            2109             301     85.5050E-03     91.5108E-03
             939             301     85.5050E-03     91.5108E-03
            2112             302     96.6004E-03     93.4301E-03
             945             302     96.6004E-03     93.4301E-03
             942             302     96.6004E-03     93.4301E-03
            2109             302     96.6004E-03     93.4301E-03
            2112             303     110.319E-03     100.356E-03
             945             303     110.319E-03     100.356E-03
            2115             303     110.319E-03     100.356E-03
             948             303     110.319E-03     100.356E-03
             951             304     106.687E-03     99.2222E-03
            2115             304     106.687E-03     99.2222E-03
            2118             304     106.687E-03     99.2222E-03
             948             304     106.687E-03     99.2222E-03
            2121             305     110.340E-03     114.191E-03
             954             305     110.340E-03     114.191E-03
             951             305     110.340E-03     114.191E-03
            2118             305     110.340E-03     114.191E-03
            2124             306     104.945E-03     115.780E-03
             954             306     104.945E-03     115.780E-03
             957             306     104.945E-03     115.780E-03
            2121             306     104.945E-03     115.780E-03
            2124             307     89.1614E-03     95.0871E-03
             957             307     89.1614E-03     95.0871E-03
            2127             307     89.1614E-03     95.0871E-03
             960             307     89.1614E-03     95.0871E-03
             959             308     130.315E-03     127.168E-03
            2226             308     130.315E-03     127.168E-03
             960             308     130.315E-03     127.168E-03
            2227             308     130.315E-03     127.168E-03
            2226             309     253.305E-03     243.887E-03
             958             309     253.305E-03     243.887E-03
             959             309     253.305E-03     243.887E-03
            2225             309     253.305E-03     243.887E-03
             978             310     5.91832E-15     5.52403E-15
             977             310     5.91832E-15     5.52403E-15
             976             311     5.25446E-15     5.41720E-15
             977             311     5.25446E-15     5.41720E-15
            2128             312     130.315E-03     127.168E-03
            2127             312     130.315E-03     127.168E-03
             979             312     130.315E-03     127.168E-03
             980             312     130.315E-03     127.168E-03
             980             313     253.305E-03     243.887E-03
             981             313     253.305E-03     243.887E-03
            2129             313     253.305E-03     243.887E-03
            2128             313     253.305E-03     243.887E-03
             981             314     300.902E-03     290.696E-03
             984             314     300.902E-03     290.696E-03
             984             315     322.418E-03     317.515E-03
             987             315     322.418E-03     317.515E-03
             990             316     354.455E-03     363.523E-03
             987             316     354.455E-03     363.523E-03
             990             317     375.392E-03     368.552E-03
             993             317     375.392E-03     368.552E-03
            2838             318     313.342E-03     305.215E-03
            2839             318     313.342E-03     305.215E-03
             993             318     313.342E-03     305.215E-03
             992             318     313.342E-03     305.215E-03
            2837             319     179.359E-03     176.722E-03
             992             319     179.359E-03     176.722E-03
            2838             319     179.359E-03     176.722E-03
             991             319     179.359E-03     176.722E-03
             991             320     93.2914E-03     96.5255E-03
             988             320     93.2914E-03     96.5255E-03
            2236             320     93.2914E-03     96.5255E-03
            2239             320     93.2914E-03     96.5255E-03
            2233             321     110.946E-03     113.990E-03
             985             321     110.946E-03     113.990E-03
            2236             321     110.946E-03     113.990E-03
             988             321     110.946E-03     113.990E-03
             985             322     123.567E-03     120.289E-03
            2233             322     123.567E-03     120.289E-03
             982             322     123.567E-03     120.289E-03
            2230             322     123.567E-03     120.289E-03
             982             323     100.435E-03     97.1144E-03
            2230             323     100.435E-03     97.1144E-03
             979             323     100.435E-03     97.1144E-03
            2227             323     100.435E-03     97.1144E-03
            2237             389     375.392E-03     368.552E-03
            2234             389     375.392E-03     368.552E-03
            2234             390     354.455E-03     363.523E-03
            2231             390     354.455E-03     363.523E-03
            2228             391     322.418E-03     317.515E-03
            2231             391     322.418E-03     317.515E-03
            2225             392     300.902E-03     290.696E-03
            2228             392     300.902E-03     290.696E-03
            2842             393     356.938E-03     356.400E-03
            2839             393     356.938E-03     356.400E-03
            2845             394     342.629E-03     336.083E-03
            2842             394     342.629E-03     336.083E-03
            2848             395     348.419E-03     349.276E-03
            2845             395     348.419E-03     349.276E-03
            2851             396     280.303E-03     281.232E-03
            2848             396     280.303E-03     281.232E-03
            2133             420     356.938E-03     356.400E-03
            2130             420     356.938E-03     356.400E-03
            2136             421     342.629E-03     336.083E-03
            2133             421     342.629E-03     336.083E-03
            2136             422     348.419E-03     349.276E-03
            2139             422     348.419E-03     349.276E-03
            2142             423     280.303E-03     281.232E-03
            2139             423     280.303E-03     281.232E-03
            2130             432     313.342E-03     305.215E-03
            2237             432     313.342E-03     305.215E-03
            2238             432     313.342E-03     305.215E-03
            2131             432     313.342E-03     305.215E-03
            2131             433     179.359E-03     176.722E-03
            2132             433     179.359E-03     176.722E-03
            2239             433     179.359E-03     176.722E-03
            2238             433     179.359E-03     176.722E-03
            2837             434     199.770E-03     199.815E-03
            2840             434     199.770E-03     199.815E-03
            2135             434     199.770E-03     199.815E-03
            2132             434     199.770E-03     199.815E-03
            2843             435     204.058E-03     203.593E-03
            2840             435     204.058E-03     203.593E-03
            2135             435     204.058E-03     203.593E-03
            2138             435     204.058E-03     203.593E-03
            2843             436     191.116E-03     190.430E-03
            2846             436     191.116E-03     190.430E-03
            2141             436     191.116E-03     190.430E-03
            2138             436     191.116E-03     190.430E-03
            2141             437     218.588E-03     219.228E-03
            2846             437     218.588E-03     219.228E-03
            2849             437     218.588E-03     219.228E-03
            2144             437     218.588E-03     219.228E-03
            2143             438     220.573E-03     219.042E-03
            2144             438     220.573E-03     219.042E-03
            2883             438     220.573E-03     219.042E-03
            2884             438     220.573E-03     219.042E-03
            2882             439     255.376E-03     248.629E-03
            2883             439     255.376E-03     248.629E-03
            2142             439     255.376E-03     248.629E-03
            2143             439     255.376E-03     248.629E-03
            2882             444     285.496E-03     286.282E-03
            2885             444     285.496E-03     286.282E-03
            2888             445     224.744E-03     225.759E-03
            2885             445     224.744E-03     225.759E-03
            2888             446     235.693E-03     227.237E-03
            2891             446     235.693E-03     227.237E-03
            2894             447     256.470E-03     251.387E-03
            2891             447     256.470E-03     251.387E-03
            2897             448     209.406E-03     208.721E-03
            2894             448     209.406E-03     208.721E-03
            2897             449     177.226E-03     176.827E-03
            2900             449     177.226E-03     176.827E-03
            2900             450     153.558E-03     154.528E-03
            2903             450     153.558E-03     154.528E-03
            2906             451     137.767E-03     141.776E-03
            2903             451     137.767E-03     141.776E-03
            2906             452     139.225E-03     142.484E-03
            2909             452     139.225E-03     142.484E-03
            2909             453     121.902E-03     122.014E-03
            2912             453     121.902E-03     122.014E-03
            2240             468     220.573E-03     219.042E-03
            2849             468     220.573E-03     219.042E-03
            2850             468     220.573E-03     219.042E-03
            2241             468     220.573E-03     219.042E-03
            2242             469     255.376E-03     248.629E-03
            2851             469     255.376E-03     248.629E-03
            2241             469     255.376E-03     248.629E-03
            2850             469     255.376E-03     248.629E-03
            2242             470     285.496E-03     286.282E-03
            2245             470     285.496E-03     286.282E-03
            2245             471     224.744E-03     225.759E-03
            2248             471     224.744E-03     225.759E-03
            2251             472     235.693E-03     227.237E-03
            2248             472     235.693E-03     227.237E-03
            2254             473     256.470E-03     251.387E-03
            2251             473     256.470E-03     251.387E-03
            2254             474     209.406E-03     208.721E-03
            2257             474     209.406E-03     208.721E-03
            2257             475     177.226E-03     176.827E-03
            2260             475     177.226E-03     176.827E-03
            2260             476     153.558E-03     154.528E-03
            2263             476     153.558E-03     154.528E-03
            2266             477     137.767E-03     141.776E-03
            2263             477     137.767E-03     141.776E-03
            2266             478     139.225E-03     142.484E-03
            2269             478     139.225E-03     142.484E-03
            2269             479     121.902E-03     122.014E-03
            2272             479     121.902E-03     122.014E-03
            2820             480     50.2902E-03     49.9176E-03
            2271             480     50.2902E-03     49.9176E-03
            2821             480     50.2902E-03     49.9176E-03
            2272             480     50.2902E-03     49.9176E-03
            2271             481     50.1659E-03     49.7924E-03
            2820             481     50.1659E-03     49.7924E-03
            2819             481     50.1659E-03     49.7924E-03
            2270             481     50.1659E-03     49.7924E-03
            2270             482     149.815E-03     148.224E-03
            2914             482     149.815E-03     148.224E-03
            2267             482     149.815E-03     148.224E-03
            2911             482     149.815E-03     148.224E-03
            2267             483     204.959E-03     201.369E-03
            2264             483     204.959E-03     201.369E-03
            2908             483     204.959E-03     201.369E-03
            2911             483     204.959E-03     201.369E-03
            2908             484     215.887E-03     211.578E-03
            2261             484     215.887E-03     211.578E-03
            2264             484     215.887E-03     211.578E-03
            2905             484     215.887E-03     211.578E-03
            2905             485     223.629E-03     221.373E-03
            2261             485     223.629E-03     221.373E-03
            2902             485     223.629E-03     221.373E-03
            2258             485     223.629E-03     221.373E-03
            2902             486     225.171E-03     227.002E-03
            2258             486     225.171E-03     227.002E-03
            2255             486     225.171E-03     227.002E-03
            2899             486     225.171E-03     227.002E-03
            2899             487     216.081E-03     220.997E-03
            2252             487     216.081E-03     220.997E-03
            2255             487     216.081E-03     220.997E-03
            2896             487     216.081E-03     220.997E-03
            2893             488     196.777E-03     200.500E-03
            2896             488     196.777E-03     200.500E-03
            2249             488     196.777E-03     200.500E-03
            2252             488     196.777E-03     200.500E-03
            2890             489     204.246E-03     206.132E-03
            2893             489     204.246E-03     206.132E-03
            2249             489     204.246E-03     206.132E-03
            2246             489     204.246E-03     206.132E-03
            2243             490     210.233E-03     210.962E-03
            2246             490     210.233E-03     210.962E-03
            2887             490     210.233E-03     210.962E-03
            2890             490     210.233E-03     210.962E-03
            2887             491     188.294E-03     187.411E-03
            2240             491     188.294E-03     187.411E-03
            2243             491     188.294E-03     187.411E-03
            2884             491     188.294E-03     187.411E-03
            2824             562     4.15192E-15     1.93924E-15
            2821             562     4.15192E-15     1.93924E-15
            2824             563     3.86947E-15     3.30313E-15
            2827             563     3.86947E-15     3.30313E-15
            2827             564     3.27482E-15     3.23009E-15
            2830             564     3.27482E-15     3.23009E-15
            2833             565     3.20879E-15     3.24410E-15
            2830             565     3.20879E-15     3.24410E-15
            2836             566     2.96394E-15     4.51029E-15
            2833             566     2.96394E-15     4.51029E-15
            2913             587     50.2902E-03     49.9176E-03
            2912             587     50.2902E-03     49.9176E-03
            2747             587     50.2902E-03     49.9176E-03
            2746             587     50.2902E-03     49.9176E-03
            2914             588     50.1659E-03     49.7924E-03
            2748             588     50.1659E-03     49.7924E-03
            2913             588     50.1659E-03     49.7924E-03
            2747             588     50.1659E-03     49.7924E-03
            2748             589     1.92471E-15     1.37934E-15
            2822             589     1.92471E-15     1.37934E-15
            2751             589     1.92471E-15     1.37934E-15
            2819             589     1.92471E-15     1.37934E-15
            2751             590     1.54746E-15     743.971E-18
            2754             590     1.54746E-15     743.971E-18
            2825             590     1.54746E-15     743.971E-18
            2822             590     1.54746E-15     743.971E-18
            2825             591     1.20341E-15     748.982E-18
            2828             591     1.20341E-15     748.982E-18
            2754             591     1.20341E-15     748.982E-18
            2757             591     1.20341E-15     748.982E-18
            2828             592     1.21851E-15     876.986E-18
            2760             592     1.21851E-15     876.986E-18
            2831             592     1.21851E-15     876.986E-18
            2757             592     1.21851E-15     876.986E-18
            2831             593     3.12097E-15     2.53386E-15
            2760             593     3.12097E-15     2.53386E-15
            2834             593     3.12097E-15     2.53386E-15
            2763             593     3.12097E-15     2.53386E-15
            2762             594     4.39426E-15     4.53037E-15
            2763             594     4.39426E-15     4.53037E-15
            2762             595     6.24477E-15     4.57412E-15
            2761             595     6.24477E-15     4.57412E-15
            2758             596     6.61580E-15     3.50874E-15
            2761             596     6.61580E-15     3.50874E-15
            2758             597     3.54057E-15     2.89842E-15
            2755             597     3.54057E-15     2.89842E-15
            2752             598     3.32306E-15     3.17507E-15
            2755             598     3.32306E-15     3.17507E-15
            2752             599     3.27226E-15     3.78785E-15
            2749             599     3.27226E-15     3.78785E-15
            2746             600     2.42913E-15     3.63034E-15
            2749             600     2.42913E-15     3.63034E-15
            2836             605     5.10440E-15     4.79890E-15
            2835             605     5.10440E-15     4.79890E-15
            2834             606     5.09575E-15     4.59614E-15
            2835             606     5.09575E-15     4.59614E-15
             844            1357     3.08623E-15     1.97377E-15
             841            1357     3.08623E-15     1.97377E-15
             842            1357     3.08623E-15     1.97377E-15
             845            1357     3.08623E-15     1.97377E-15
             846            1358     1.30395E-15     1.33821E-15
             843            1358     1.30395E-15     1.33821E-15
             842            1358     1.30395E-15     1.33821E-15
             845            1358     1.30395E-15     1.33821E-15
             844            1359     3.11053E-15     1.61243E-15
             847            1359     3.11053E-15     1.61243E-15
             848            1359     3.11053E-15     1.61243E-15
             845            1359     3.11053E-15     1.61243E-15
             845            1360     1.66431E-15     1.49827E-15
             849            1360     1.66431E-15     1.49827E-15
             848            1360     1.66431E-15     1.49827E-15
             846            1360     1.66431E-15     1.49827E-15
             850            1361     2.42946E-15     2.10804E-15
             848            1361     2.42946E-15     2.10804E-15
             851            1361     2.42946E-15     2.10804E-15
             847            1361     2.42946E-15     2.10804E-15
             849            1362     1.92968E-15     1.51728E-15
             848            1362     1.92968E-15     1.51728E-15
             852            1362     1.92968E-15     1.51728E-15
             851            1362     1.92968E-15     1.51728E-15
             853            1363     2.52580E-15     2.57478E-15
             854            1363     2.52580E-15     2.57478E-15
             851            1363     2.52580E-15     2.57478E-15
             850            1363     2.52580E-15     2.57478E-15
             854            1364     2.19169E-15     1.43618E-15
             852            1364     2.19169E-15     1.43618E-15
             851            1364     2.19169E-15     1.43618E-15
             855            1364     2.19169E-15     1.43618E-15
             857            1365     3.99286E-15     3.86015E-15
             853            1365     3.99286E-15     3.86015E-15
             854            1365     3.99286E-15     3.86015E-15
             856            1365     3.99286E-15     3.86015E-15
             858            1366     4.08352E-15     3.61556E-15
             854            1366     4.08352E-15     3.61556E-15
             857            1366     4.08352E-15     3.61556E-15
             855            1366     4.08352E-15     3.61556E-15
             859            1367     54.9593E-03     54.6008E-03
             860            1367     54.9593E-03     54.6008E-03
             862            1367     54.9593E-03     54.6008E-03
             863            1367     54.9593E-03     54.6008E-03
             863            1368     60.6954E-03     59.9693E-03
             861            1368     60.6954E-03     59.9693E-03
             864            1368     60.6954E-03     59.9693E-03
             860            1368     60.6954E-03     59.9693E-03
             866            1369     68.6610E-03     68.6061E-03
             865            1369     68.6610E-03     68.6061E-03
             863            1369     68.6610E-03     68.6061E-03
             862            1369     68.6610E-03     68.6061E-03
             863            1370     82.1875E-03     80.6721E-03
             867            1370     82.1875E-03     80.6721E-03
             864            1370     82.1875E-03     80.6721E-03
             866            1370     82.1875E-03     80.6721E-03
             865            1371     69.1471E-03     69.5819E-03
             868            1371     69.1471E-03     69.5819E-03
             869            1371     69.1471E-03     69.5819E-03
             866            1371     69.1471E-03     69.5819E-03
             867            1372     85.1423E-03     83.8372E-03
             870            1372     85.1423E-03     83.8372E-03
             866            1372     85.1423E-03     83.8372E-03
             869            1372     85.1423E-03     83.8372E-03
             871            1373     72.5032E-03     72.8755E-03
             872            1373     72.5032E-03     72.8755E-03
             868            1373     72.5032E-03     72.8755E-03
             869            1373     72.5032E-03     72.8755E-03
             872            1374     86.6517E-03     86.3725E-03
             870            1374     86.6517E-03     86.3725E-03
             869            1374     86.6517E-03     86.3725E-03
             873            1374     86.6517E-03     86.3725E-03
             874            1375     78.8562E-03     78.8585E-03
             871            1375     78.8562E-03     78.8585E-03
             875            1375     78.8562E-03     78.8585E-03
             872            1375     78.8562E-03     78.8585E-03
             873            1376     88.3529E-03     88.8410E-03
             876            1376     88.3529E-03     88.8410E-03
             875            1376     88.3529E-03     88.8410E-03
             872            1376     88.3529E-03     88.8410E-03
             877            1377     88.6101E-03     88.8288E-03
             878            1377     88.6101E-03     88.8288E-03
             874            1377     88.6101E-03     88.8288E-03
             875            1377     88.6101E-03     88.8288E-03
             875            1378     89.5752E-03     90.9781E-03
             876            1378     89.5752E-03     90.9781E-03
             878            1378     89.5752E-03     90.9781E-03
             879            1378     89.5752E-03     90.9781E-03
             878            1379     98.2502E-03     97.6666E-03
             881            1379     98.2502E-03     97.6666E-03
             880            1379     98.2502E-03     97.6666E-03
             877            1379     98.2502E-03     97.6666E-03
             881            1380     85.3788E-03     86.6411E-03
             878            1380     85.3788E-03     86.6411E-03
             879            1380     85.3788E-03     86.6411E-03
             882            1380     85.3788E-03     86.6411E-03
             884            1381     91.9445E-03     88.1855E-03
             881            1381     91.9445E-03     88.1855E-03
             883            1381     91.9445E-03     88.1855E-03
             880            1381     91.9445E-03     88.1855E-03
             881            1382     85.7191E-03     83.9224E-03
             882            1382     85.7191E-03     83.9224E-03
             885            1382     85.7191E-03     83.9224E-03
             884            1382     85.7191E-03     83.9224E-03
             887            1383     88.3972E-03     86.2690E-03
             883            1383     88.3972E-03     86.2690E-03
             886            1383     88.3972E-03     86.2690E-03
             884            1383     88.3972E-03     86.2690E-03
             885            1384     91.5226E-03     87.7933E-03
             887            1384     91.5226E-03     87.7933E-03
             888            1384     91.5226E-03     87.7933E-03
             884            1384     91.5226E-03     87.7933E-03
             887            1385     98.9250E-03     100.410E-03
             889            1385     98.9250E-03     100.410E-03
             890            1385     98.9250E-03     100.410E-03
             886            1385     98.9250E-03     100.410E-03
             890            1386     94.1471E-03     92.5479E-03
             887            1386     94.1471E-03     92.5479E-03
             891            1386     94.1471E-03     92.5479E-03
             888            1386     94.1471E-03     92.5479E-03
             889            1387     108.303E-03     109.319E-03
             892            1387     108.303E-03     109.319E-03
             890            1387     108.303E-03     109.319E-03
             893            1387     108.303E-03     109.319E-03
             890            1388     97.3872E-03     98.6112E-03
             894            1388     97.3872E-03     98.6112E-03
             893            1388     97.3872E-03     98.6112E-03
             891            1388     97.3872E-03     98.6112E-03
             895            1389     120.702E-03     122.177E-03
             896            1389     120.702E-03     122.177E-03
             893            1389     120.702E-03     122.177E-03
             892            1389     120.702E-03     122.177E-03
             897            1390     99.5098E-03     102.924E-03
             893            1390     99.5098E-03     102.924E-03
             896            1390     99.5098E-03     102.924E-03
             894            1390     99.5098E-03     102.924E-03
             899            1391     131.048E-03     129.701E-03
             896            1391     131.048E-03     129.701E-03
             898            1391     131.048E-03     129.701E-03
             895            1391     131.048E-03     129.701E-03
             900            1392     94.0400E-03     96.2858E-03
             896            1392     94.0400E-03     96.2858E-03
             897            1392     94.0400E-03     96.2858E-03
             899            1392     94.0400E-03     96.2858E-03
             898            1393     123.541E-03     114.887E-03
             901            1393     123.541E-03     114.887E-03
             899            1393     123.541E-03     114.887E-03
             902            1393     123.541E-03     114.887E-03
             902            1394     95.4236E-03     91.4456E-03
             899            1394     95.4236E-03     91.4456E-03
             903            1394     95.4236E-03     91.4456E-03
             900            1394     95.4236E-03     91.4456E-03
             904            1395     120.262E-03     115.437E-03
             901            1395     120.262E-03     115.437E-03
             905            1395     120.262E-03     115.437E-03
             902            1395     120.262E-03     115.437E-03
             903            1396     103.180E-03     96.6497E-03
             906            1396     103.180E-03     96.6497E-03
             902            1396     103.180E-03     96.6497E-03
             905            1396     103.180E-03     96.6497E-03
             907            1397     133.422E-03     135.439E-03
             904            1397     133.422E-03     135.439E-03
             908            1397     133.422E-03     135.439E-03
             905            1397     133.422E-03     135.439E-03
             906            1398     105.763E-03     102.874E-03
             905            1398     105.763E-03     102.874E-03
             909            1398     105.763E-03     102.874E-03
             908            1398     105.763E-03     102.874E-03
             908            1399     144.718E-03     145.883E-03
             910            1399     144.718E-03     145.883E-03
             911            1399     144.718E-03     145.883E-03
             907            1399     144.718E-03     145.883E-03
             912            1400     109.944E-03     110.164E-03
             911            1400     109.944E-03     110.164E-03
             909            1400     109.944E-03     110.164E-03
             908            1400     109.944E-03     110.164E-03
             914            1401     155.790E-03     156.329E-03
             910            1401     155.790E-03     156.329E-03
             911            1401     155.790E-03     156.329E-03
             913            1401     155.790E-03     156.329E-03
             914            1402     114.685E-03     117.679E-03
             915            1402     114.685E-03     117.679E-03
             912            1402     114.685E-03     117.679E-03
             911            1402     114.685E-03     117.679E-03
             916            1403     169.424E-03     171.501E-03
             917            1403     169.424E-03     171.501E-03
             913            1403     169.424E-03     171.501E-03
             914            1403     169.424E-03     171.501E-03
             917            1404     117.407E-03     123.380E-03
             918            1404     117.407E-03     123.380E-03
             915            1404     117.407E-03     123.380E-03
             914            1404     117.407E-03     123.380E-03
             916            1405     178.919E-03     175.860E-03
             919            1405     178.919E-03     175.860E-03
             917            1405     178.919E-03     175.860E-03
             920            1405     178.919E-03     175.860E-03
             917            1406     109.977E-03     112.572E-03
             918            1406     109.977E-03     112.572E-03
             921            1406     109.977E-03     112.572E-03
             920            1406     109.977E-03     112.572E-03
             920            1407     168.924E-03     154.738E-03
             919            1407     168.924E-03     154.738E-03
             922            1407     168.924E-03     154.738E-03
             923            1407     168.924E-03     154.738E-03
             924            1408     111.711E-03     104.868E-03
             921            1408     111.711E-03     104.868E-03
             923            1408     111.711E-03     104.868E-03
             920            1408     111.711E-03     104.868E-03
             922            1409     165.701E-03     158.546E-03
             926            1409     165.701E-03     158.546E-03
             923            1409     165.701E-03     158.546E-03
             925            1409     165.701E-03     158.546E-03
             923            1410     121.608E-03     112.704E-03
             924            1410     121.608E-03     112.704E-03
             927            1410     121.608E-03     112.704E-03
             926            1410     121.608E-03     112.704E-03
             926            1411     180.763E-03     183.803E-03
             929            1411     180.763E-03     183.803E-03
             925            1411     180.763E-03     183.803E-03
             928            1411     180.763E-03     183.803E-03
             927            1412     124.188E-03     121.155E-03
             926            1412     124.188E-03     121.155E-03
             929            1412     124.188E-03     121.155E-03
             930            1412     124.188E-03     121.155E-03
             932            1413     192.906E-03     194.569E-03
             929            1413     192.906E-03     194.569E-03
             928            1413     192.906E-03     194.569E-03
             931            1413     192.906E-03     194.569E-03
             929            1414     128.835E-03     129.665E-03
             932            1414     128.835E-03     129.665E-03
             933            1414     128.835E-03     129.665E-03
             930            1414     128.835E-03     129.665E-03
             932            1415     204.540E-03     205.522E-03
             934            1415     204.540E-03     205.522E-03
             935            1415     204.540E-03     205.522E-03
             931            1415     204.540E-03     205.522E-03
             932            1416     134.376E-03     138.868E-03
             933            1416     134.376E-03     138.868E-03
             935            1416     134.376E-03     138.868E-03
             936            1416     134.376E-03     138.868E-03
             937            1417     218.706E-03     221.886E-03
             938            1417     218.706E-03     221.886E-03
             934            1417     218.706E-03     221.886E-03
             935            1417     218.706E-03     221.886E-03
             935            1418     137.257E-03     145.475E-03
             938            1418     137.257E-03     145.475E-03
             936            1418     137.257E-03     145.475E-03
             939            1418     137.257E-03     145.475E-03
             940            1419     227.270E-03     222.508E-03
             938            1419     227.270E-03     222.508E-03
             941            1419     227.270E-03     222.508E-03
             937            1419     227.270E-03     222.508E-03
             939            1420     128.072E-03     130.583E-03
             938            1420     128.072E-03     130.583E-03
             942            1420     128.072E-03     130.583E-03
             941            1420     128.072E-03     130.583E-03
             943            1421     216.062E-03     197.345E-03
             941            1421     216.062E-03     197.345E-03
             940            1421     216.062E-03     197.345E-03
             944            1421     216.062E-03     197.345E-03
             945            1422     130.833E-03     121.505E-03
             942            1422     130.833E-03     121.505E-03
             941            1422     130.833E-03     121.505E-03
             944            1422     130.833E-03     121.505E-03
             947            1423     215.563E-03     207.351E-03
             944            1423     215.563E-03     207.351E-03
             943            1423     215.563E-03     207.351E-03
             946            1423     215.563E-03     207.351E-03
             945            1424     143.489E-03     133.760E-03
             948            1424     143.489E-03     133.760E-03
             947            1424     143.489E-03     133.760E-03
             944            1424     143.489E-03     133.760E-03
             946            1425     232.514E-03     237.775E-03
             949            1425     232.514E-03     237.775E-03
             947            1425     232.514E-03     237.775E-03
             950            1425     232.514E-03     237.775E-03
             948            1426     146.348E-03     145.546E-03
             951            1426     146.348E-03     145.546E-03
             947            1426     146.348E-03     145.546E-03
             950            1426     146.348E-03     145.546E-03
             952            1427     244.263E-03     248.256E-03
             950            1427     244.263E-03     248.256E-03
             949            1427     244.263E-03     248.256E-03
             953            1427     244.263E-03     248.256E-03
             950            1428     151.470E-03     157.665E-03
             954            1428     151.470E-03     157.665E-03
             953            1428     151.470E-03     157.665E-03
             951            1428     151.470E-03     157.665E-03
             955            1429     258.937E-03     264.443E-03
             953            1429     258.937E-03     264.443E-03
             952            1429     258.937E-03     264.443E-03
             956            1429     258.937E-03     264.443E-03
             954            1430     154.011E-03     163.954E-03
             956            1430     154.011E-03     163.954E-03
             953            1430     154.011E-03     163.954E-03
             957            1430     154.011E-03     163.954E-03
             959            1431     266.800E-03     261.265E-03
             958            1431     266.800E-03     261.265E-03
             956            1431     266.800E-03     261.265E-03
             955            1431     266.800E-03     261.265E-03
             960            1432     143.469E-03     145.822E-03
             957            1432     143.469E-03     145.822E-03
             959            1432     143.469E-03     145.822E-03
             956            1432     143.469E-03     145.822E-03
             962            1433     1.19349E-15     3.13299E-15
             961            1433     1.19349E-15     3.13299E-15
             964            1433     1.19349E-15     3.13299E-15
             965            1433     1.19349E-15     3.13299E-15
             966            1434     1.93305E-15     3.26542E-15
             963            1434     1.93305E-15     3.26542E-15
             962            1434     1.93305E-15     3.26542E-15
             965            1434     1.93305E-15     3.26542E-15
             965            1435     1.40640E-15     2.43282E-15
             964            1435     1.40640E-15     2.43282E-15
             967            1435     1.40640E-15     2.43282E-15
             968            1435     1.40640E-15     2.43282E-15
             969            1436     2.58781E-15     3.09819E-15
             966            1436     2.58781E-15     3.09819E-15
             965            1436     2.58781E-15     3.09819E-15
             968            1436     2.58781E-15     3.09819E-15
             968            1437     1.17972E-15     1.82710E-15
             967            1437     1.17972E-15     1.82710E-15
             971            1437     1.17972E-15     1.82710E-15
             970            1437     1.17972E-15     1.82710E-15
             969            1438     2.54723E-15     3.14940E-15
             972            1438     2.54723E-15     3.14940E-15
             968            1438     2.54723E-15     3.14940E-15
             971            1438     2.54723E-15     3.14940E-15
             971            1439     1.45003E-15     1.62566E-15
             970            1439     1.45003E-15     1.62566E-15
             973            1439     1.45003E-15     1.62566E-15
             974            1439     1.45003E-15     1.62566E-15
             972            1440     2.76593E-15     2.40405E-15
             975            1440     2.76593E-15     2.40405E-15
             971            1440     2.76593E-15     2.40405E-15
             974            1440     2.76593E-15     2.40405E-15
             974            1441     3.66287E-15     3.46376E-15
             977            1441     3.66287E-15     3.46376E-15
             976            1441     3.66287E-15     3.46376E-15
             973            1441     3.66287E-15     3.46376E-15
             975            1442     4.76859E-15     3.56163E-15
             978            1442     4.76859E-15     3.56163E-15
             977            1442     4.76859E-15     3.56163E-15
             974            1442     4.76859E-15     3.56163E-15
             979            1443     147.038E-03     140.816E-03
             980            1443     147.038E-03     140.816E-03
             982            1443     147.038E-03     140.816E-03
             983            1443     147.038E-03     140.816E-03
             983            1444     247.271E-03     237.606E-03
             980            1444     247.271E-03     237.606E-03
             984            1444     247.271E-03     237.606E-03
             981            1444     247.271E-03     237.606E-03
             983            1445     169.027E-03     165.706E-03
             986            1445     169.027E-03     165.706E-03
             982            1445     169.027E-03     165.706E-03
             985            1445     169.027E-03     165.706E-03
             984            1446     268.452E-03     264.319E-03
             987            1446     268.452E-03     264.319E-03
             983            1446     268.452E-03     264.319E-03
             986            1446     268.452E-03     264.319E-03
             985            1447     170.370E-03     179.770E-03
             986            1447     170.370E-03     179.770E-03
             988            1447     170.370E-03     179.770E-03
             989            1447     170.370E-03     179.770E-03
             990            1448     292.124E-03     304.536E-03
             986            1448     292.124E-03     304.536E-03
             987            1448     292.124E-03     304.536E-03
             989            1448     292.124E-03     304.536E-03
             988            1449     157.272E-03     161.153E-03
             992            1449     157.272E-03     161.153E-03
             991            1449     157.272E-03     161.153E-03
             989            1449     157.272E-03     161.153E-03
             992            1450     298.323E-03     297.166E-03
             990            1450     298.323E-03     297.166E-03
             993            1450     298.323E-03     297.166E-03
             989            1450     298.323E-03     297.166E-03
            2032            2310     60.6954E-03     59.9693E-03
            2029            2310     60.6954E-03     59.9693E-03
            2028            2310     60.6954E-03     59.9693E-03
            2031            2310     60.6954E-03     59.9693E-03
            2030            2311     54.9593E-03     54.6008E-03
            2033            2311     54.9593E-03     54.6008E-03
            2029            2311     54.9593E-03     54.6008E-03
            2032            2311     54.9593E-03     54.6008E-03
            2031            2312     82.1875E-03     80.6721E-03
            2034            2312     82.1875E-03     80.6721E-03
            2035            2312     82.1875E-03     80.6721E-03
            2032            2312     82.1875E-03     80.6721E-03
            2032            2313     68.6610E-03     68.6061E-03
            2033            2313     68.6610E-03     68.6061E-03
            2036            2313     68.6610E-03     68.6061E-03
            2035            2313     68.6610E-03     68.6061E-03
            2038            2314     85.1423E-03     83.8372E-03
            2035            2314     85.1423E-03     83.8372E-03
            2037            2314     85.1423E-03     83.8372E-03
            2034            2314     85.1423E-03     83.8372E-03
            2038            2315     69.1471E-03     69.5819E-03
            2036            2315     69.1471E-03     69.5819E-03
            2035            2315     69.1471E-03     69.5819E-03
            2039            2315     69.1471E-03     69.5819E-03
            2041            2316     86.6517E-03     86.3725E-03
            2040            2316     86.6517E-03     86.3725E-03
            2037            2316     86.6517E-03     86.3725E-03
            2038            2316     86.6517E-03     86.3725E-03
            2039            2317     72.5032E-03     72.8755E-03
            2038            2317     72.5032E-03     72.8755E-03
            2041            2317     72.5032E-03     72.8755E-03
            2042            2317     72.5032E-03     72.8755E-03
            2043            2318     88.3529E-03     88.8410E-03
            2041            2318     88.3529E-03     88.8410E-03
            2040            2318     88.3529E-03     88.8410E-03
            2044            2318     88.3529E-03     88.8410E-03
            2041            2319     78.8562E-03     78.8585E-03
            2042            2319     78.8562E-03     78.8585E-03
            2044            2319     78.8562E-03     78.8585E-03
            2045            2319     78.8562E-03     78.8585E-03
            2047            2320     89.5752E-03     90.9781E-03
            2046            2320     89.5752E-03     90.9781E-03
            2044            2320     89.5752E-03     90.9781E-03
            2043            2320     89.5752E-03     90.9781E-03
            2048            2321     88.6101E-03     88.8288E-03
            2045            2321     88.6101E-03     88.8288E-03
            2044            2321     88.6101E-03     88.8288E-03
            2047            2321     88.6101E-03     88.8288E-03
            2047            2322     85.3788E-03     86.6411E-03
            2050            2322     85.3788E-03     86.6411E-03
            2049            2322     85.3788E-03     86.6411E-03
            2046            2322     85.3788E-03     86.6411E-03
            2048            2323     98.2502E-03     97.6666E-03
            2050            2323     98.2502E-03     97.6666E-03
            2051            2323     98.2502E-03     97.6666E-03
            2047            2323     98.2502E-03     97.6666E-03
            2050            2324     85.7191E-03     83.9224E-03
            2053            2324     85.7191E-03     83.9224E-03
            2049            2324     85.7191E-03     83.9224E-03
            2052            2324     85.7191E-03     83.9224E-03
            2050            2325     91.9445E-03     88.1855E-03
            2054            2325     91.9445E-03     88.1855E-03
            2051            2325     91.9445E-03     88.1855E-03
            2053            2325     91.9445E-03     88.1855E-03
            2052            2326     91.5226E-03     87.7933E-03
            2053            2326     91.5226E-03     87.7933E-03
            2056            2326     91.5226E-03     87.7933E-03
            2055            2326     91.5226E-03     87.7933E-03
            2054            2327     88.3972E-03     86.2690E-03
            2053            2327     88.3972E-03     86.2690E-03
            2056            2327     88.3972E-03     86.2690E-03
            2057            2327     88.3972E-03     86.2690E-03
            2058            2328     94.1471E-03     92.5479E-03
            2059            2328     94.1471E-03     92.5479E-03
            2055            2328     94.1471E-03     92.5479E-03
            2056            2328     94.1471E-03     92.5479E-03
            2057            2329     98.9250E-03     100.410E-03
            2060            2329     98.9250E-03     100.410E-03
            2059            2329     98.9250E-03     100.410E-03
            2056            2329     98.9250E-03     100.410E-03
            2061            2330     97.3872E-03     98.6112E-03
            2062            2330     97.3872E-03     98.6112E-03
            2058            2330     97.3872E-03     98.6112E-03
            2059            2330     97.3872E-03     98.6112E-03
            2063            2331     108.303E-03     109.319E-03
            2059            2331     108.303E-03     109.319E-03
            2062            2331     108.303E-03     109.319E-03
            2060            2331     108.303E-03     109.319E-03
            2062            2332     99.5098E-03     102.924E-03
            2061            2332     99.5098E-03     102.924E-03
            2065            2332     99.5098E-03     102.924E-03
            2064            2332     99.5098E-03     102.924E-03
            2062            2333     120.702E-03     122.177E-03
            2066            2333     120.702E-03     122.177E-03
            2063            2333     120.702E-03     122.177E-03
            2065            2333     120.702E-03     122.177E-03
            2065            2334     94.0400E-03     96.2858E-03
            2068            2334     94.0400E-03     96.2858E-03
            2064            2334     94.0400E-03     96.2858E-03
            2067            2334     94.0400E-03     96.2858E-03
            2069            2335     131.048E-03     129.701E-03
            2065            2335     131.048E-03     129.701E-03
            2066            2335     131.048E-03     129.701E-03
            2068            2335     131.048E-03     129.701E-03
            2068            2336     95.4236E-03     91.4456E-03
            2071            2336     95.4236E-03     91.4456E-03
            2067            2336     95.4236E-03     91.4456E-03
            2070            2336     95.4236E-03     91.4456E-03
            2072            2337     123.541E-03     114.887E-03
            2068            2337     123.541E-03     114.887E-03
            2069            2337     123.541E-03     114.887E-03
            2071            2337     123.541E-03     114.887E-03
            2074            2338     103.180E-03     96.6497E-03
            2073            2338     103.180E-03     96.6497E-03
            2070            2338     103.180E-03     96.6497E-03
            2071            2338     103.180E-03     96.6497E-03
            2071            2339     120.262E-03     115.437E-03
            2074            2339     120.262E-03     115.437E-03
            2075            2339     120.262E-03     115.437E-03
            2072            2339     120.262E-03     115.437E-03
            2074            2340     105.763E-03     102.874E-03
            2076            2340     105.763E-03     102.874E-03
            2077            2340     105.763E-03     102.874E-03
            2073            2340     105.763E-03     102.874E-03
            2078            2341     133.422E-03     135.439E-03
            2075            2341     133.422E-03     135.439E-03
            2077            2341     133.422E-03     135.439E-03
            2074            2341     133.422E-03     135.439E-03
            2080            2342     109.944E-03     110.164E-03
            2076            2342     109.944E-03     110.164E-03
            2077            2342     109.944E-03     110.164E-03
            2079            2342     109.944E-03     110.164E-03
            2077            2343     144.718E-03     145.883E-03
            2078            2343     144.718E-03     145.883E-03
            2081            2343     144.718E-03     145.883E-03
            2080            2343     144.718E-03     145.883E-03
            2082            2344     114.685E-03     117.679E-03
            2079            2344     114.685E-03     117.679E-03
            2080            2344     114.685E-03     117.679E-03
            2083            2344     114.685E-03     117.679E-03
            2084            2345     155.790E-03     156.329E-03
            2081            2345     155.790E-03     156.329E-03
            2083            2345     155.790E-03     156.329E-03
            2080            2345     155.790E-03     156.329E-03
            2086            2346     117.407E-03     123.380E-03
            2085            2346     117.407E-03     123.380E-03
            2082            2346     117.407E-03     123.380E-03
            2083            2346     117.407E-03     123.380E-03
            2087            2347     169.424E-03     171.501E-03
            2086            2347     169.424E-03     171.501E-03
            2083            2347     169.424E-03     171.501E-03
            2084            2347     169.424E-03     171.501E-03
            2089            2348     109.977E-03     112.572E-03
            2085            2348     109.977E-03     112.572E-03
            2086            2348     109.977E-03     112.572E-03
            2088            2348     109.977E-03     112.572E-03
            2086            2349     178.919E-03     175.860E-03
            2087            2349     178.919E-03     175.860E-03
            2090            2349     178.919E-03     175.860E-03
            2089            2349     178.919E-03     175.860E-03
            2092            2350     111.711E-03     104.868E-03
            2089            2350     111.711E-03     104.868E-03
            2091            2350     111.711E-03     104.868E-03
            2088            2350     111.711E-03     104.868E-03
            2092            2351     168.924E-03     154.738E-03
            2093            2351     168.924E-03     154.738E-03
            2090            2351     168.924E-03     154.738E-03
            2089            2351     168.924E-03     154.738E-03
            2092            2352     121.608E-03     112.704E-03
            2094            2352     121.608E-03     112.704E-03
            2095            2352     121.608E-03     112.704E-03
            2091            2352     121.608E-03     112.704E-03
            2095            2353     165.701E-03     158.546E-03
            2096            2353     165.701E-03     158.546E-03
            2093            2353     165.701E-03     158.546E-03
            2092            2353     165.701E-03     158.546E-03
            2094            2354     124.188E-03     121.155E-03
            2095            2354     124.188E-03     121.155E-03
            2098            2354     124.188E-03     121.155E-03
            2097            2354     124.188E-03     121.155E-03
            2095            2355     180.763E-03     183.803E-03
            2098            2355     180.763E-03     183.803E-03
            2099            2355     180.763E-03     183.803E-03
            2096            2355     180.763E-03     183.803E-03
            2098            2356     128.835E-03     129.665E-03
            2101            2356     128.835E-03     129.665E-03
            2100            2356     128.835E-03     129.665E-03
            2097            2356     128.835E-03     129.665E-03
            2099            2357     192.906E-03     194.569E-03
            2101            2357     192.906E-03     194.569E-03
            2098            2357     192.906E-03     194.569E-03
            2102            2357     192.906E-03     194.569E-03
            2100            2358     134.376E-03     138.868E-03
            2104            2358     134.376E-03     138.868E-03
            2103            2358     134.376E-03     138.868E-03
            2101            2358     134.376E-03     138.868E-03
            2102            2359     204.540E-03     205.522E-03
            2101            2359     204.540E-03     205.522E-03
            2105            2359     204.540E-03     205.522E-03
            2104            2359     204.540E-03     205.522E-03
            2107            2360     137.257E-03     145.475E-03
            2103            2360     137.257E-03     145.475E-03
            2104            2360     137.257E-03     145.475E-03
            2106            2360     137.257E-03     145.475E-03
            2107            2361     218.706E-03     221.886E-03
            2108            2361     218.706E-03     221.886E-03
            2105            2361     218.706E-03     221.886E-03
            2104            2361     218.706E-03     221.886E-03
            2109            2362     128.072E-03     130.583E-03
            2106            2362     128.072E-03     130.583E-03
            2107            2362     128.072E-03     130.583E-03
            2110            2362     128.072E-03     130.583E-03
            2111            2363     227.270E-03     222.508E-03
            2107            2363     227.270E-03     222.508E-03
            2110            2363     227.270E-03     222.508E-03
            2108            2363     227.270E-03     222.508E-03
            2109            2364     130.833E-03     121.505E-03
            2113            2364     130.833E-03     121.505E-03
            2110            2364     130.833E-03     121.505E-03
            2112            2364     130.833E-03     121.505E-03
            2111            2365     216.062E-03     197.345E-03
            2113            2365     216.062E-03     197.345E-03
            2110            2365     216.062E-03     197.345E-03
            2114            2365     216.062E-03     197.345E-03
            2112            2366     143.489E-03     133.760E-03
            2116            2366     143.489E-03     133.760E-03
            2113            2366     143.489E-03     133.760E-03
            2115            2366     143.489E-03     133.760E-03
            2117            2367     215.563E-03     207.351E-03
            2116            2367     215.563E-03     207.351E-03
            2114            2367     215.563E-03     207.351E-03
            2113            2367     215.563E-03     207.351E-03
            2115            2368     146.348E-03     145.546E-03
            2116            2368     146.348E-03     145.546E-03
            2119            2368     146.348E-03     145.546E-03
            2118            2368     146.348E-03     145.546E-03
            2117            2369     232.514E-03     237.775E-03
            2116            2369     232.514E-03     237.775E-03
            2119            2369     232.514E-03     237.775E-03
            2120            2369     232.514E-03     237.775E-03
            2118            2370     151.470E-03     157.665E-03
            2119            2370     151.470E-03     157.665E-03
            2121            2370     151.470E-03     157.665E-03
            2122            2370     151.470E-03     157.665E-03
            2119            2371     244.263E-03     248.256E-03
            2123            2371     244.263E-03     248.256E-03
            2122            2371     244.263E-03     248.256E-03
            2120            2371     244.263E-03     248.256E-03
            2124            2372     154.011E-03     163.954E-03
            2122            2372     154.011E-03     163.954E-03
            2121            2372     154.011E-03     163.954E-03
            2125            2372     154.011E-03     163.954E-03
            2125            2373     258.937E-03     264.443E-03
            2122            2373     258.937E-03     264.443E-03
            2123            2373     258.937E-03     264.443E-03
            2126            2373     258.937E-03     264.443E-03
            2125            2374     143.469E-03     145.822E-03
            2124            2374     143.469E-03     145.822E-03
            2127            2374     143.469E-03     145.822E-03
            2128            2374     143.469E-03     145.822E-03
            2128            2375     266.800E-03     261.265E-03
            2126            2375     266.800E-03     261.265E-03
            2125            2375     266.800E-03     261.265E-03
            2129            2375     266.800E-03     261.265E-03
            2134            2376     317.306E-03     316.974E-03
            2133            2376     317.306E-03     316.974E-03
            2130            2376     317.306E-03     316.974E-03
            2131            2376     317.306E-03     316.974E-03
            2132            2377     238.722E-03     238.681E-03
            2134            2377     238.722E-03     238.681E-03
            2131            2377     238.722E-03     238.681E-03
            2135            2377     238.722E-03     238.681E-03
            2137            2378     306.156E-03     303.957E-03
            2136            2378     306.156E-03     303.957E-03
            2133            2378     306.156E-03     303.957E-03
            2134            2378     306.156E-03     303.957E-03
            2134            2379     236.871E-03     237.712E-03
            2135            2379     236.871E-03     237.712E-03
            2138            2379     236.871E-03     237.712E-03
            2137            2379     236.871E-03     237.712E-03
            2136            2380     303.432E-03     307.156E-03
            2139            2380     303.432E-03     307.156E-03
            2140            2380     303.432E-03     307.156E-03
            2137            2380     303.432E-03     307.156E-03
            2137            2381     224.781E-03     227.733E-03
            2140            2381     224.781E-03     227.733E-03
            2141            2381     224.781E-03     227.733E-03
            2138            2381     224.781E-03     227.733E-03
            2140            2382     271.689E-03     271.471E-03
            2143            2382     271.689E-03     271.471E-03
            2142            2382     271.689E-03     271.471E-03
            2139            2382     271.689E-03     271.471E-03
            2143            2383     240.831E-03     240.469E-03
            2144            2383     240.831E-03     240.469E-03
            2141            2383     240.831E-03     240.469E-03
            2140            2383     240.831E-03     240.469E-03
            2225            2440     247.271E-03     237.606E-03
            2226            2440     247.271E-03     237.606E-03
            2228            2440     247.271E-03     237.606E-03
            2229            2440     247.271E-03     237.606E-03
            2230            2441     147.038E-03     140.816E-03
            2227            2441     147.038E-03     140.816E-03
            2226            2441     147.038E-03     140.816E-03
            2229            2441     147.038E-03     140.816E-03
            2232            2442     268.452E-03     264.319E-03
            2229            2442     268.452E-03     264.319E-03
            2231            2442     268.452E-03     264.319E-03
            2228            2442     268.452E-03     264.319E-03
            2232            2443     169.027E-03     165.706E-03
            2233            2443     169.027E-03     165.706E-03
            2230            2443     169.027E-03     165.706E-03
            2229            2443     169.027E-03     165.706E-03
            2234            2444     292.124E-03     304.536E-03
            2231            2444     292.124E-03     304.536E-03
            2235            2444     292.124E-03     304.536E-03
            2232            2444     292.124E-03     304.536E-03
            2233            2445     170.370E-03     179.770E-03
            2235            2445     170.370E-03     179.770E-03
            2236            2445     170.370E-03     179.770E-03
            2232            2445     170.370E-03     179.770E-03
            2234            2446     298.323E-03     297.166E-03
            2237            2446     298.323E-03     297.166E-03
            2238            2446     298.323E-03     297.166E-03
            2235            2446     298.323E-03     297.166E-03
            2235            2447     157.272E-03     161.153E-03
            2238            2447     157.272E-03     161.153E-03
            2239            2447     157.272E-03     161.153E-03
            2236            2447     157.272E-03     161.153E-03
            2244            2448     211.176E-03     212.945E-03
            2240            2448     211.176E-03     212.945E-03
            2243            2448     211.176E-03     212.945E-03
            2241            2448     211.176E-03     212.945E-03
            2242            2449     259.777E-03     262.381E-03
            2241            2449     259.777E-03     262.381E-03
            2244            2449     259.777E-03     262.381E-03
            2245            2449     259.777E-03     262.381E-03
            2243            2450     225.162E-03     224.590E-03
            2247            2450     225.162E-03     224.590E-03
            2246            2450     225.162E-03     224.590E-03
            2244            2450     225.162E-03     224.590E-03
            2247            2451     232.418E-03     231.988E-03
            2248            2451     232.418E-03     231.988E-03
            2245            2451     232.418E-03     231.988E-03
            2244            2451     232.418E-03     231.988E-03
            2250            2452     212.032E-03     211.189E-03
            2247            2452     212.032E-03     211.189E-03
            2249            2452     212.032E-03     211.189E-03
            2246            2452     212.032E-03     211.189E-03
            2250            2453     227.756E-03     221.741E-03
            2247            2453     227.756E-03     221.741E-03
            2251            2453     227.756E-03     221.741E-03
            2248            2453     227.756E-03     221.741E-03
            2252            2454     207.242E-03     210.248E-03
            2253            2454     207.242E-03     210.248E-03
            2249            2454     207.242E-03     210.248E-03
            2250            2454     207.242E-03     210.248E-03
            2250            2455     237.089E-03     235.692E-03
            2251            2455     237.089E-03     235.692E-03
            2254            2455     237.089E-03     235.692E-03
            2253            2455     237.089E-03     235.692E-03
            2255            2456     217.537E-03     220.886E-03
            2253            2456     217.537E-03     220.886E-03
            2256            2456     217.537E-03     220.886E-03
            2252            2456     217.537E-03     220.886E-03
            2253            2457     214.199E-03     214.748E-03
            2254            2457     214.199E-03     214.748E-03
            2256            2457     214.199E-03     214.748E-03
            2257            2457     214.199E-03     214.748E-03
            2258            2458     214.954E-03     216.140E-03
            2255            2458     214.954E-03     216.140E-03
            2259            2458     214.954E-03     216.140E-03
            2256            2458     214.954E-03     216.140E-03
            2259            2459     190.982E-03     191.052E-03
            2257            2459     190.982E-03     191.052E-03
            2260            2459     190.982E-03     191.052E-03
            2256            2459     190.982E-03     191.052E-03
            2261            2460     211.057E-03     210.377E-03
            2258            2460     211.057E-03     210.377E-03
            2259            2460     211.057E-03     210.377E-03
            2262            2460     211.057E-03     210.377E-03
            2263            2461     176.021E-03     176.954E-03
            2259            2461     176.021E-03     176.954E-03
            2260            2461     176.021E-03     176.954E-03
            2262            2461     176.021E-03     176.954E-03
            2264            2462     207.456E-03     204.333E-03
            2262            2462     207.456E-03     204.333E-03
            2261            2462     207.456E-03     204.333E-03
            2265            2462     207.456E-03     204.333E-03
            2263            2463     168.396E-03     169.431E-03
            2265            2463     168.396E-03     169.431E-03
            2262            2463     168.396E-03     169.431E-03
            2266            2463     168.396E-03     169.431E-03
            2264            2464     200.291E-03     196.710E-03
            2268            2464     200.291E-03     196.710E-03
            2265            2464     200.291E-03     196.710E-03
            2267            2464     200.291E-03     196.710E-03
            2265            2465     167.424E-03     167.268E-03
            2266            2465     167.424E-03     167.268E-03
            2268            2465     167.424E-03     167.268E-03
            2269            2465     167.424E-03     167.268E-03
            2271            2466     147.932E-03     146.216E-03
            2267            2466     147.932E-03     146.216E-03
            2270            2466     147.932E-03     146.216E-03
            2268            2466     147.932E-03     146.216E-03
            2269            2467     133.975E-03     133.111E-03
            2268            2467     133.975E-03     133.111E-03
            2271            2467     133.975E-03     133.111E-03
            2272            2467     133.975E-03     133.111E-03
            2750            2844     1.74615E-15     2.89166E-15
            2747            2844     1.74615E-15     2.89166E-15
            2749            2844     1.74615E-15     2.89166E-15
            2746            2844     1.74615E-15     2.89166E-15
            2751            2845     1.53702E-15     1.77935E-15
            2748            2845     1.53702E-15     1.77935E-15
            2747            2845     1.53702E-15     1.77935E-15
            2750            2845     1.53702E-15     1.77935E-15
            2749            2846     2.04078E-15     2.87306E-15
            2750            2846     2.04078E-15     2.87306E-15
            2752            2846     2.04078E-15     2.87306E-15
            2753            2846     2.04078E-15     2.87306E-15
            2750            2847     834.282E-18     1.18223E-15
            2753            2847     834.282E-18     1.18223E-15
            2754            2847     834.282E-18     1.18223E-15
            2751            2847     834.282E-18     1.18223E-15
            2753            2848     2.22282E-15     2.27646E-15
            2755            2848     2.22282E-15     2.27646E-15
            2752            2848     2.22282E-15     2.27646E-15
            2756            2848     2.22282E-15     2.27646E-15
            2754            2849     956.533E-18     957.981E-18
            2757            2849     956.533E-18     957.981E-18
            2753            2849     956.533E-18     957.981E-18
            2756            2849     956.533E-18     957.981E-18
            2756            2850     2.79993E-15     2.34887E-15
            2759            2850     2.79993E-15     2.34887E-15
            2758            2850     2.79993E-15     2.34887E-15
            2755            2850     2.79993E-15     2.34887E-15
            2757            2851     1.63873E-15     1.42336E-15
            2759            2851     1.63873E-15     1.42336E-15
            2756            2851     1.63873E-15     1.42336E-15
            2760            2851     1.63873E-15     1.42336E-15
            2759            2852     4.65911E-15     3.56242E-15
            2762            2852     4.65911E-15     3.56242E-15
            2761            2852     4.65911E-15     3.56242E-15
            2758            2852     4.65911E-15     3.56242E-15
            2759            2853     3.23257E-15     3.11633E-15
            2760            2853     3.23257E-15     3.11633E-15
            2762            2853     3.23257E-15     3.11633E-15
            2763            2853     3.23257E-15     3.11633E-15
            2823            2894     2.01314E-15     2.14842E-15
            2820            2894     2.01314E-15     2.14842E-15
            2819            2894     2.01314E-15     2.14842E-15
            2822            2894     2.01314E-15     2.14842E-15
            2823            2895     3.16983E-15     2.44156E-15
            2821            2895     3.16983E-15     2.44156E-15
            2820            2895     3.16983E-15     2.44156E-15
            2824            2895     3.16983E-15     2.44156E-15
            2826            2896     2.05932E-15     1.41533E-15
            2823            2896     2.05932E-15     1.41533E-15
            2825            2896     2.05932E-15     1.41533E-15
            2822            2896     2.05932E-15     1.41533E-15
            2826            2897     2.87623E-15     2.52603E-15
            2824            2897     2.87623E-15     2.52603E-15
            2823            2897     2.87623E-15     2.52603E-15
            2827            2897     2.87623E-15     2.52603E-15
            2825            2898     1.84564E-15     1.22925E-15
            2828            2898     1.84564E-15     1.22925E-15
            2826            2898     1.84564E-15     1.22925E-15
            2829            2898     1.84564E-15     1.22925E-15
            2826            2899     2.67488E-15     2.36437E-15
            2829            2899     2.67488E-15     2.36437E-15
            2830            2899     2.67488E-15     2.36437E-15
            2827            2899     2.67488E-15     2.36437E-15
            2832            2900     1.39775E-15     1.45263E-15
            2831            2900     1.39775E-15     1.45263E-15
            2829            2900     1.39775E-15     1.45263E-15
            2828            2900     1.39775E-15     1.45263E-15
            2832            2901     2.39271E-15     2.72140E-15
            2833            2901     2.39271E-15     2.72140E-15
            2829            2901     2.39271E-15     2.72140E-15
            2830            2901     2.39271E-15     2.72140E-15
            2834            2902     3.28711E-15     3.04708E-15
            2835            2902     3.28711E-15     3.04708E-15
            2832            2902     3.28711E-15     3.04708E-15
            2831            2902     3.28711E-15     3.04708E-15
            2836            2903     3.52948E-15     4.07664E-15
            2835            2903     3.52948E-15     4.07664E-15
            2832            2903     3.52948E-15     4.07664E-15
            2833            2903     3.52948E-15     4.07664E-15
            2837            2904     238.722E-03     238.681E-03
            2840            2904     238.722E-03     238.681E-03
            2838            2904     238.722E-03     238.681E-03
            2841            2904     238.722E-03     238.681E-03
            2842            2905     317.306E-03     316.974E-03
            2841            2905     317.306E-03     316.974E-03
            2838            2905     317.306E-03     316.974E-03
            2839            2905     317.306E-03     316.974E-03
            2844            2906     236.871E-03     237.712E-03
            2840            2906     236.871E-03     237.712E-03
            2843            2906     236.871E-03     237.712E-03
            2841            2906     236.871E-03     237.712E-03
            2844            2907     306.156E-03     303.957E-03
            2845            2907     306.156E-03     303.957E-03
            2841            2907     306.156E-03     303.957E-03
            2842            2907     306.156E-03     303.957E-03
            2844            2908     224.781E-03     227.733E-03
            2846            2908     224.781E-03     227.733E-03
            2843            2908     224.781E-03     227.733E-03
            2847            2908     224.781E-03     227.733E-03
            2844            2909     303.432E-03     307.156E-03
            2845            2909     303.432E-03     307.156E-03
            2847            2909     303.432E-03     307.156E-03
            2848            2909     303.432E-03     307.156E-03
            2846            2910     240.831E-03     240.469E-03
            2847            2910     240.831E-03     240.469E-03
            2849            2910     240.831E-03     240.469E-03
            2850            2910     240.831E-03     240.469E-03
            2847            2911     271.689E-03     271.471E-03
            2848            2911     271.689E-03     271.471E-03
            2851            2911     271.689E-03     271.471E-03
            2850            2911     271.689E-03     271.471E-03
            2882            2932     259.777E-03     262.381E-03
            2886            2932     259.777E-03     262.381E-03
            2885            2932     259.777E-03     262.381E-03
            2883            2932     259.777E-03     262.381E-03
            2883            2933     211.176E-03     212.945E-03
            2884            2933     211.176E-03     212.945E-03
            2886            2933     211.176E-03     212.945E-03
            2887            2933     211.176E-03     212.945E-03
            2885            2934     232.418E-03     231.988E-03
            2888            2934     232.418E-03     231.988E-03
            2889            2934     232.418E-03     231.988E-03
            2886            2934     232.418E-03     231.988E-03
            2887            2935     225.162E-03     224.590E-03
            2886            2935     225.162E-03     224.590E-03
            2889            2935     225.162E-03     224.590E-03
            2890            2935     225.162E-03     224.590E-03
            2889            2936     227.756E-03     221.741E-03
            2888            2936     227.756E-03     221.741E-03
            2892            2936     227.756E-03     221.741E-03
            2891            2936     227.756E-03     221.741E-03
            2892            2937     212.032E-03     211.189E-03
            2893            2937     212.032E-03     211.189E-03
            2890            2937     212.032E-03     211.189E-03
            2889            2937     212.032E-03     211.189E-03
            2891            2938     237.089E-03     235.692E-03
            2892            2938     237.089E-03     235.692E-03
            2894            2938     237.089E-03     235.692E-03
            2895            2938     237.089E-03     235.692E-03
            2893            2939     207.242E-03     210.248E-03
            2895            2939     207.242E-03     210.248E-03
            2896            2939     207.242E-03     210.248E-03
            2892            2939     207.242E-03     210.248E-03
            2894            2940     214.199E-03     214.748E-03
            2897            2940     214.199E-03     214.748E-03
            2895            2940     214.199E-03     214.748E-03
            2898            2940     214.199E-03     214.748E-03
            2896            2941     217.537E-03     220.886E-03
            2898            2941     217.537E-03     220.886E-03
            2895            2941     217.537E-03     220.886E-03
            2899            2941     217.537E-03     220.886E-03
            2901            2942     190.982E-03     191.052E-03
            2900            2942     190.982E-03     191.052E-03
            2898            2942     190.982E-03     191.052E-03
            2897            2942     190.982E-03     191.052E-03
            2899            2943     214.954E-03     216.140E-03
            2901            2943     214.954E-03     216.140E-03
            2898            2943     214.954E-03     216.140E-03
            2902            2943     214.954E-03     216.140E-03
            2903            2944     176.021E-03     176.954E-03
            2901            2944     176.021E-03     176.954E-03
            2904            2944     176.021E-03     176.954E-03
            2900            2944     176.021E-03     176.954E-03
            2904            2945     211.057E-03     210.377E-03
            2902            2945     211.057E-03     210.377E-03
            2905            2945     211.057E-03     210.377E-03
            2901            2945     211.057E-03     210.377E-03
            2903            2946     168.396E-03     169.431E-03
            2906            2946     168.396E-03     169.431E-03
            2904            2946     168.396E-03     169.431E-03
            2907            2946     168.396E-03     169.431E-03
            2907            2947     207.456E-03     204.333E-03
            2905            2947     207.456E-03     204.333E-03
            2908            2947     207.456E-03     204.333E-03
            2904            2947     207.456E-03     204.333E-03
            2907            2948     167.424E-03     167.268E-03
            2910            2948     167.424E-03     167.268E-03
            2909            2948     167.424E-03     167.268E-03
            2906            2948     167.424E-03     167.268E-03
            2908            2949     200.291E-03     196.710E-03
            2910            2949     200.291E-03     196.710E-03
            2907            2949     200.291E-03     196.710E-03
            2911            2949     200.291E-03     196.710E-03
            2910            2950     133.975E-03     133.111E-03
            2909            2950     133.975E-03     133.111E-03
            2912            2950     133.975E-03     133.111E-03
            2913            2950     133.975E-03     133.111E-03
            2911            2951     147.932E-03     146.216E-03
            2914            2951     147.932E-03     146.216E-03
            2910            2951     147.932E-03     146.216E-03
            2913            2951     147.932E-03     146.216E-03


  Minimum                            696.589E-18     743.971E-18
      At Element                             967            2825
            Node                             267             590

  Maximum                            394.373E-03     383.507E-03
      At Element                            2839            2839
            Node                              16              16

           Total                         217.666         216.380


Field Output reported at element nodes for region: CRJ700-1.Region_3
   Computation algorithm: EXTRAPOLATE_COMPUTE_AVERAGE
   Averaged at nodes
   Averaging regions: ODB_REGIONS

   Element Label      Node Label         S.Mises         S.Mises
                                          @Loc 1          @Loc 2
-----------------------------------------------------------------
               1               1     786.561E-06     884.932E-06
            2288               1     786.561E-06     884.932E-06
            2273               2     2.58996E-03     2.66232E-03
              16               2     2.58996E-03     2.66232E-03
            1009               3     348.810E-03     362.020E-03
             544               3     348.810E-03     362.020E-03
             529               4     10.7178E-03     16.7203E-03
             994               4     10.7178E-03     16.7203E-03
            2368               7     24.9643E-15     20.7289E-15
            2353               9     12.7854E-15     14.6183E-15
            1768              16     397.208E-03     426.208E-03
            1073              16     397.208E-03     426.208E-03
            1058              18     23.7091E-03     32.8168E-03
            1753              18     23.7091E-03     32.8168E-03
            1832              21     265.970E-03     278.545E-03
            3026              21     265.970E-03     278.545E-03
            3011              22     41.3769E-03     43.7523E-03
            1817              22     41.3769E-03     43.7523E-03
            2560              28     6.18038E-03     6.35564E-03
            3186              28     6.18038E-03     6.35564E-03
            2545              30     1.91687E-03     2.15617E-03
            3171              30     1.91687E-03     2.15617E-03
            2640              31     20.3058E-15     18.8507E-15
            2625              32     17.4345E-15     28.3611E-15
               2              36     800.446E-06     901.251E-06
            2288              36     800.446E-06     901.251E-06
            2287              36     800.446E-06     901.251E-06
               1              36     800.446E-06     901.251E-06
               3              37     842.834E-06     946.741E-06
            2287              37     842.834E-06     946.741E-06
               2              37     842.834E-06     946.741E-06
            2286              37     842.834E-06     946.741E-06
            2285              38     911.844E-06     1.01581E-03
               4              38     911.844E-06     1.01581E-03
               3              38     911.844E-06     1.01581E-03
            2286              38     911.844E-06     1.01581E-03
            2285              39     1.00209E-03     1.10411E-03
               4              39     1.00209E-03     1.10411E-03
            2284              39     1.00209E-03     1.10411E-03
               5              39     1.00209E-03     1.10411E-03
            2284              40     1.10845E-03     1.20746E-03
            2283              40     1.10845E-03     1.20746E-03
               6              40     1.10845E-03     1.20746E-03
               5              40     1.10845E-03     1.20746E-03
            2282              41     1.22674E-03     1.32234E-03
               7              41     1.22674E-03     1.32234E-03
               6              41     1.22674E-03     1.32234E-03
            2283              41     1.22674E-03     1.32234E-03
            2281              42     1.35385E-03     1.44602E-03
            2282              42     1.35385E-03     1.44602E-03
               8              42     1.35385E-03     1.44602E-03
               7              42     1.35385E-03     1.44602E-03
            2281              43     1.48750E-03     1.57642E-03
               8              43     1.48750E-03     1.57642E-03
               9              43     1.48750E-03     1.57642E-03
            2280              43     1.48750E-03     1.57642E-03
              10              44     1.62608E-03     1.71200E-03
               9              44     1.62608E-03     1.71200E-03
            2280              44     1.62608E-03     1.71200E-03
            2279              44     1.62608E-03     1.71200E-03
            2278              45     1.76842E-03     1.85161E-03
            2279              45     1.76842E-03     1.85161E-03
              11              45     1.76842E-03     1.85161E-03
              10              45     1.76842E-03     1.85161E-03
              11              46     1.91368E-03     1.99442E-03
            2277              46     1.91368E-03     1.99442E-03
              12              46     1.91368E-03     1.99442E-03
            2278              46     1.91368E-03     1.99442E-03
              12              47     2.06124E-03     2.13977E-03
              13              47     2.06124E-03     2.13977E-03
            2277              47     2.06124E-03     2.13977E-03
            2276              47     2.06124E-03     2.13977E-03
            2276              48     2.21064E-03     2.28718E-03
              14              48     2.21064E-03     2.28718E-03
            2275              48     2.21064E-03     2.28718E-03
              13              48     2.21064E-03     2.28718E-03
              15              49     2.36153E-03     2.43627E-03
            2275              49     2.36153E-03     2.43627E-03
            2274              49     2.36153E-03     2.43627E-03
              14              49     2.36153E-03     2.43627E-03
            2273              50     2.51363E-03     2.58676E-03
              16              50     2.51363E-03     2.58676E-03
              15              50     2.51363E-03     2.58676E-03
            2274              50     2.51363E-03     2.58676E-03
              32              51     11.6788E-03     14.1832E-03
              16              51     11.6788E-03     14.1832E-03
              48              52     23.3209E-03     25.6713E-03
              32              52     23.3209E-03     25.6713E-03
              48              53     35.2947E-03     34.4736E-03
              64              53     35.2947E-03     34.4736E-03
              80              54     48.7494E-03     47.5517E-03
              64              54     48.7494E-03     47.5517E-03
              80              55     60.7914E-03     62.4919E-03
              96              55     60.7914E-03     62.4919E-03
              96              56     75.8975E-03     75.0717E-03
             112              56     75.8975E-03     75.0717E-03
             128              57     88.6885E-03     92.5744E-03
             112              57     88.6885E-03     92.5744E-03
             128              58     84.4634E-03     87.3641E-03
             144              58     84.4634E-03     87.3641E-03
             144              59     85.1365E-03     82.3863E-03
             160              59     85.1365E-03     82.3863E-03
             160              60     103.961E-03     104.410E-03
             176              60     103.961E-03     104.410E-03
             192              61     119.840E-03     122.749E-03
             176              61     119.840E-03     122.749E-03
             208              62     135.919E-03     136.044E-03
             192              62     135.919E-03     136.044E-03
             224              63     149.087E-03     153.073E-03
             208              63     149.087E-03     153.073E-03
             224              64     144.605E-03     148.736E-03
             240              64     144.605E-03     148.736E-03
             256              65     148.053E-03     144.297E-03
             240              65     148.053E-03     144.297E-03
             272              66     166.325E-03     168.442E-03
             256              66     166.325E-03     168.442E-03
             272              67     184.007E-03     185.539E-03
             288              67     184.007E-03     185.539E-03
             288              68     197.499E-03     202.022E-03
             304              68     197.499E-03     202.022E-03
             320              69     212.935E-03     213.820E-03
             304              69     212.935E-03     213.820E-03
             320              70     224.565E-03     228.494E-03
             336              70     224.565E-03     228.494E-03
             336              71     217.256E-03     223.154E-03
             352              71     217.256E-03     223.154E-03
             368              72     221.579E-03     217.770E-03
             352              72     221.579E-03     217.770E-03
             368              73     240.993E-03     243.904E-03
             384              73     240.993E-03     243.904E-03
             384              74     259.170E-03     262.032E-03
             400              74     259.170E-03     262.032E-03
             416              75     272.718E-03     278.573E-03
             400              75     272.718E-03     278.573E-03
             432              76     287.794E-03     289.437E-03
             416              76     287.794E-03     289.437E-03
             448              77     298.339E-03     302.274E-03
             432              77     298.339E-03     302.274E-03
             464              78     289.315E-03     296.998E-03
             448              78     289.315E-03     296.998E-03
             464              79     294.101E-03     292.066E-03
             480              79     294.101E-03     292.066E-03
             480              80     317.143E-03     319.030E-03
             496              80     317.143E-03     319.030E-03
             496              81     333.079E-03     341.971E-03
             512              81     333.079E-03     341.971E-03
             528              82     349.549E-03     351.020E-03
             512              82     349.549E-03     351.020E-03
             528              83     358.727E-03     363.627E-03
             544              83     358.727E-03     363.627E-03
            1009              84     328.879E-03     339.793E-03
             543              84     328.879E-03     339.793E-03
            1008              84     328.879E-03     339.793E-03
             544              84     328.879E-03     339.793E-03
             542              85     297.552E-03     305.429E-03
            1007              85     297.552E-03     305.429E-03
            1008              85     297.552E-03     305.429E-03
             543              85     297.552E-03     305.429E-03
            1007              86     274.333E-03     282.393E-03
             542              86     274.333E-03     282.393E-03
            1006              86     274.333E-03     282.393E-03
             541              86     274.333E-03     282.393E-03
            1005              87     252.175E-03     260.995E-03
            1006              87     252.175E-03     260.995E-03
             540              87     252.175E-03     260.995E-03
             541              87     252.175E-03     260.995E-03
            1005              88     231.050E-03     240.204E-03
            1004              88     231.050E-03     240.204E-03
             539              88     231.050E-03     240.204E-03
             540              88     231.050E-03     240.204E-03
             538              89     209.910E-03     219.378E-03
            1004              89     209.910E-03     219.378E-03
             539              89     209.910E-03     219.378E-03
            1003              89     209.910E-03     219.378E-03
            1002              90     188.866E-03     198.377E-03
             538              90     188.866E-03     198.377E-03
             537              90     188.866E-03     198.377E-03
            1003              90     188.866E-03     198.377E-03
             536              91     167.649E-03     177.247E-03
            1002              91     167.649E-03     177.247E-03
             537              91     167.649E-03     177.247E-03
            1001              91     167.649E-03     177.247E-03
            1000              92     146.388E-03     155.975E-03
            1001              92     146.388E-03     155.975E-03
             535              92     146.388E-03     155.975E-03
             536              92     146.388E-03     155.975E-03
            1000              93     124.996E-03     134.639E-03
             999              93     124.996E-03     134.639E-03
             534              93     124.996E-03     134.639E-03
             535              93     124.996E-03     134.639E-03
             998              94     103.605E-03     113.236E-03
             534              94     103.605E-03     113.236E-03
             533              94     103.605E-03     113.236E-03
             999              94     103.605E-03     113.236E-03
             532              95     82.2246E-03     91.7588E-03
             997              95     82.2246E-03     91.7588E-03
             533              95     82.2246E-03     91.7588E-03
             998              95     82.2246E-03     91.7588E-03
             997              96     60.9954E-03     70.1970E-03
             996              96     60.9954E-03     70.1970E-03
             531              96     60.9954E-03     70.1970E-03
             532              96     60.9954E-03     70.1970E-03
             530              97     40.1767E-03     48.5776E-03
             531              97     40.1767E-03     48.5776E-03
             995              97     40.1767E-03     48.5776E-03
             996              97     40.1767E-03     48.5776E-03
             530              98     20.3314E-03     27.2191E-03
             994              98     20.3314E-03     27.2191E-03
             529              98     20.3314E-03     27.2191E-03
             995              98     20.3314E-03     27.2191E-03
             513              99     8.99282E-03     19.0836E-03
             529              99     8.99282E-03     19.0836E-03
             513             100     9.75657E-03     20.2307E-03
             497             100     9.75657E-03     20.2307E-03
             481             101     21.5759E-03     23.1903E-03
             497             101     21.5759E-03     23.1903E-03
             481             102     33.7958E-03     36.7338E-03
             465             102     33.7958E-03     36.7338E-03
             465             103     42.6511E-03     52.0821E-03
             449             103     42.6511E-03     52.0821E-03
             449             104     27.9574E-03     35.4815E-03
             433             104     27.9574E-03     35.4815E-03
             433             105     6.71389E-03     14.8351E-03
             417             105     6.71389E-03     14.8351E-03
             417             106     8.55539E-03     14.4823E-03
             401             106     8.55539E-03     14.4823E-03
             401             107     17.3127E-03     19.4132E-03
             385             107     17.3127E-03     19.4132E-03
             385             108     26.2508E-03     26.3194E-03
             369             108     26.2508E-03     26.3194E-03
             353             109     35.8762E-03     37.7518E-03
             369             109     35.8762E-03     37.7518E-03
             337             110     42.1217E-03     50.4868E-03
             353             110     42.1217E-03     50.4868E-03
             337             111     23.8528E-03     31.3181E-03
             321             111     23.8528E-03     31.3181E-03
             321             112     5.62070E-03     9.75433E-03
             305             112     5.62070E-03     9.75433E-03
             289             113     11.4154E-03     12.3640E-03
             305             113     11.4154E-03     12.3640E-03
             289             114     18.1601E-03     18.0999E-03
             273             114     18.1601E-03     18.0999E-03
             257             115     24.7015E-03     23.5656E-03
             273             115     24.7015E-03     23.5656E-03
             257             116     31.6203E-03     32.1417E-03
             241             116     31.6203E-03     32.1417E-03
             241             117     35.5614E-03     41.9662E-03
             225             117     35.5614E-03     41.9662E-03
             225             118     21.7529E-03     27.7059E-03
             209             118     21.7529E-03     27.7059E-03
             209             119     10.6749E-03     11.3578E-03
             193             119     10.6749E-03     11.3578E-03
             177             120     16.1571E-03     14.6648E-03
             193             120     16.1571E-03     14.6648E-03
             161             121     20.6278E-03     18.2778E-03
             177             121     20.6278E-03     18.2778E-03
             145             122     25.1743E-03     24.0874E-03
             161             122     25.1743E-03     24.0874E-03
             145             123     27.2180E-03     31.0370E-03
             129             123     27.2180E-03     31.0370E-03
             113             124     20.0446E-03     24.5405E-03
             129             124     20.0446E-03     24.5405E-03
              97             125     15.0998E-03     16.4607E-03
             113             125     15.0998E-03     16.4607E-03
              97             126     18.5535E-03     16.3359E-03
              81             126     18.5535E-03     16.3359E-03
              65             127     20.2674E-03     18.0030E-03
              81             127     20.2674E-03     18.0030E-03
              49             128     21.9847E-03     19.5692E-03
              65             128     21.9847E-03     19.5692E-03
              49             129     23.8199E-03     22.2627E-03
              33             129     23.8199E-03     22.2627E-03
              17             130     23.4170E-03     26.4584E-03
              33             130     23.4170E-03     26.4584E-03
              17             131     11.9841E-03     14.5790E-03
               1             131     11.9841E-03     14.5790E-03
            2352             167     16.8925E-15     11.9634E-15
            2368             167     16.8925E-15     11.9634E-15
            2336             168     18.1468E-15     15.4574E-15
            2352             168     18.1468E-15     15.4574E-15
            2320             169     19.6265E-15     20.2692E-15
            2336             169     19.6265E-15     20.2692E-15
            2304             170     16.4971E-15     13.4057E-15
            2320             170     16.4971E-15     13.4057E-15
            2304             171     20.2474E-15     16.9509E-15
            2288             171     20.2474E-15     16.9509E-15
            2289             176     18.6076E-15     18.5456E-15
            2273             176     18.6076E-15     18.5456E-15
            2305             177     12.5502E-15     12.2371E-15
            2289             177     12.5502E-15     12.2371E-15
            2321             178     10.2801E-15     10.5862E-15
            2305             178     10.2801E-15     10.5862E-15
            2337             179     13.2895E-15     13.7732E-15
            2321             179     13.2895E-15     13.7732E-15
            2337             180     15.6201E-15     16.9281E-15
            2353             180     15.6201E-15     16.9281E-15
            1025             314     347.854E-03     350.322E-03
            1009             314     347.854E-03     350.322E-03
            1025             315     368.529E-03     371.388E-03
            1041             315     368.529E-03     371.388E-03
            1057             316     395.795E-03     397.119E-03
            1041             316     395.795E-03     397.119E-03
            1073             317     408.144E-03     416.365E-03
            1057             317     408.144E-03     416.365E-03
            1768             324     367.151E-03     395.965E-03
            1073             324     367.151E-03     395.965E-03
            1767             324     367.151E-03     395.965E-03
            1072             324     367.151E-03     395.965E-03
            1072             325     328.408E-03     354.599E-03
            1071             325     328.408E-03     354.599E-03
            1766             325     328.408E-03     354.599E-03
            1767             325     328.408E-03     354.599E-03
            1766             326     305.792E-03     331.999E-03
            1071             326     305.792E-03     331.999E-03
            1070             326     305.792E-03     331.999E-03
            1765             326     305.792E-03     331.999E-03
            1070             327     281.017E-03     308.064E-03
            1764             327     281.017E-03     308.064E-03
            1765             327     281.017E-03     308.064E-03
            1069             327     281.017E-03     308.064E-03
            1069             328     257.495E-03     284.155E-03
            1764             328     257.495E-03     284.155E-03
            1068             328     257.495E-03     284.155E-03
            1763             328     257.495E-03     284.155E-03
            1068             329     233.219E-03     260.251E-03
            1067             329     233.219E-03     260.251E-03
            1762             329     233.219E-03     260.251E-03
            1763             329     233.219E-03     260.251E-03
            1067             330     209.205E-03     235.896E-03
            1762             330     209.205E-03     235.896E-03
            1761             330     209.205E-03     235.896E-03
            1066             330     209.205E-03     235.896E-03
            1066             331     184.850E-03     211.652E-03
            1760             331     184.850E-03     211.652E-03
            1065             331     184.850E-03     211.652E-03
            1761             331     184.850E-03     211.652E-03
            1760             332     160.649E-03     187.232E-03
            1759             332     160.649E-03     187.232E-03
            1064             332     160.649E-03     187.232E-03
            1065             332     160.649E-03     187.232E-03
            1064             333     136.384E-03     162.902E-03
            1063             333     136.384E-03     162.902E-03
            1758             333     136.384E-03     162.902E-03
            1759             333     136.384E-03     162.902E-03
            1757             334     112.289E-03     138.588E-03
            1758             334     112.289E-03     138.588E-03
            1062             334     112.289E-03     138.588E-03
            1063             334     112.289E-03     138.588E-03
            1757             335     88.4002E-03     114.431E-03
            1756             335     88.4002E-03     114.431E-03
            1061             335     88.4002E-03     114.431E-03
            1062             335     88.4002E-03     114.431E-03
            1755             336     65.3433E-03     90.4449E-03
            1756             336     65.3433E-03     90.4449E-03
            1061             336     65.3433E-03     90.4449E-03
            1060             336     65.3433E-03     90.4449E-03
            1060             337     44.2735E-03     66.6871E-03
            1755             337     44.2735E-03     66.6871E-03
            1059             337     44.2735E-03     66.6871E-03
            1754             337     44.2735E-03     66.6871E-03
            1753             338     29.0860E-03     43.8166E-03
            1059             338     29.0860E-03     43.8166E-03
            1754             338     29.0860E-03     43.8166E-03
            1058             338     29.0860E-03     43.8166E-03
            1042             339     11.8175E-03     19.0665E-03
            1058             339     11.8175E-03     19.0665E-03
            1042             340     21.2792E-03     29.7229E-03
            1026             340     21.2792E-03     29.7229E-03
            1026             341     34.8000E-03     42.9513E-03
            1010             341     34.8000E-03     42.9513E-03
             994             342     24.2356E-03     30.2411E-03
            1010             342     24.2356E-03     30.2411E-03
            1768             393     368.815E-03     374.497E-03
            1784             393     368.815E-03     374.497E-03
            1800             394     351.400E-03     356.501E-03
            1784             394     351.400E-03     356.501E-03
            1816             395     337.353E-03     350.315E-03
            1800             395     337.353E-03     350.315E-03
            1832             396     292.125E-03     281.327E-03
            1816             396     292.125E-03     281.327E-03
            1832             397     257.777E-03     267.326E-03
            3026             397     257.777E-03     267.326E-03
            1831             397     257.777E-03     267.326E-03
            3025             397     257.777E-03     267.326E-03
            3024             398     244.792E-03     250.636E-03
            1830             398     244.792E-03     250.636E-03
            1831             398     244.792E-03     250.636E-03
            3025             398     244.792E-03     250.636E-03
            3023             399     230.854E-03     236.421E-03
            1830             399     230.854E-03     236.421E-03
            3024             399     230.854E-03     236.421E-03
            1829             399     230.854E-03     236.421E-03
            3022             400     213.560E-03     219.693E-03
            3023             400     213.560E-03     219.693E-03
            1828             400     213.560E-03     219.693E-03
            1829             400     213.560E-03     219.693E-03
            3021             401     196.810E-03     202.999E-03
            1828             401     196.810E-03     202.999E-03
            3022             401     196.810E-03     202.999E-03
            1827             401     196.810E-03     202.999E-03
            3021             402     179.728E-03     185.902E-03
            1826             402     179.728E-03     185.902E-03
            3020             402     179.728E-03     185.902E-03
            1827             402     179.728E-03     185.902E-03
            3019             403     162.741E-03     168.927E-03
            3020             403     162.741E-03     168.927E-03
            1825             403     162.741E-03     168.927E-03
            1826             403     162.741E-03     168.927E-03
            1825             404     145.759E-03     151.942E-03
            3018             404     145.759E-03     151.942E-03
            3019             404     145.759E-03     151.942E-03
            1824             404     145.759E-03     151.942E-03
            1824             405     128.965E-03     135.152E-03
            3018             405     128.965E-03     135.152E-03
            3017             405     128.965E-03     135.152E-03
            1823             405     128.965E-03     135.152E-03
            1823             406     112.442E-03     118.601E-03
            1822             406     112.442E-03     118.601E-03
            3016             406     112.442E-03     118.601E-03
            3017             406     112.442E-03     118.601E-03
            3015             407     96.3765E-03     102.469E-03
            1822             407     96.3765E-03     102.469E-03
            1821             407     96.3765E-03     102.469E-03
            3016             407     96.3765E-03     102.469E-03
            3015             408     81.0600E-03     86.9903E-03
            3014             408     81.0600E-03     86.9903E-03
            1821             408     81.0600E-03     86.9903E-03
            1820             408     81.0600E-03     86.9903E-03
            1820             409     66.9852E-03     72.7793E-03
            3013             409     66.9852E-03     72.7793E-03
            3014             409     66.9852E-03     72.7793E-03
            1819             409     66.9852E-03     72.7793E-03
            3012             410     55.7554E-03     60.8807E-03
            3013             410     55.7554E-03     60.8807E-03
            1818             410     55.7554E-03     60.8807E-03
            1819             410     55.7554E-03     60.8807E-03
            1817             411     46.2618E-03     49.7201E-03
            1818             411     46.2618E-03     49.7201E-03
            3011             411     46.2618E-03     49.7201E-03
            3012             411     46.2618E-03     49.7201E-03
            1801             412     51.2595E-03     52.5816E-03
            1817             412     51.2595E-03     52.5816E-03
            1801             413     38.4564E-03     41.1632E-03
            1785             413     38.4564E-03     41.1632E-03
            1785             414     38.6960E-03     37.8061E-03
            1769             414     38.6960E-03     37.8061E-03
            1769             415     43.8837E-03     45.9625E-03
            1753             415     43.8837E-03     45.9625E-03
            3042             470     255.665E-03     269.031E-03
            3026             470     255.665E-03     269.031E-03
            3042             471     215.062E-03     202.249E-03
            3058             471     215.062E-03     202.249E-03
            3074             472     203.723E-03     212.775E-03
            3058             472     203.723E-03     212.775E-03
            3090             473     211.543E-03     221.202E-03
            3074             473     211.543E-03     221.202E-03
            3106             474     181.031E-03     178.912E-03
            3090             474     181.031E-03     178.912E-03
            3106             475     144.745E-03     148.797E-03
            3122             475     144.745E-03     148.797E-03
            3138             476     115.919E-03     112.965E-03
            3122             476     115.919E-03     112.965E-03
            3138             477     83.6392E-03     81.5915E-03
            3154             477     83.6392E-03     81.5915E-03
            3170             478     55.0482E-03     61.1055E-03
            3154             478     55.0482E-03     61.1055E-03
            3186             479     27.6178E-03     34.0505E-03
            3170             479     27.6178E-03     34.0505E-03
            2367             492     19.0272E-15     18.9100E-15
            2368             492     19.0272E-15     18.9100E-15
            2366             493     11.8192E-15     14.2412E-15
            2367             493     11.8192E-15     14.2412E-15
            2366             494     9.07570E-15     10.0658E-15
            2365             494     9.07570E-15     10.0658E-15
            2364             495     9.88499E-15     9.02172E-15
            2365             495     9.88499E-15     9.02172E-15
            2363             496     11.9636E-15     12.3044E-15
            2364             496     11.9636E-15     12.3044E-15
            2362             497     10.4120E-15     13.2930E-15
            2363             497     10.4120E-15     13.2930E-15
            2361             498     17.8076E-15     19.2673E-15
            2362             498     17.8076E-15     19.2673E-15
            2361             499     26.9941E-15     27.0126E-15
            2360             499     26.9941E-15     27.0126E-15
            2359             500     26.8644E-15     26.0491E-15
            2360             500     26.8644E-15     26.0491E-15
            2358             501     27.9591E-15     27.4213E-15
            2359             501     27.9591E-15     27.4213E-15
            2358             502     23.1827E-15     23.0527E-15
            2357             502     23.1827E-15     23.0527E-15
            2356             503     16.4080E-15     16.3371E-15
            2357             503     16.4080E-15     16.3371E-15
            2355             504     11.3210E-15     10.7982E-15
            2356             504     11.3210E-15     10.7982E-15
            2354             505     11.3425E-15     10.8104E-15
            2355             505     11.3425E-15     10.8104E-15
            2353             506     14.4525E-15     15.3634E-15
            2354             506     14.4525E-15     15.3634E-15
            3027             522     39.9291E-03     41.4809E-03
            3011             522     39.9291E-03     41.4809E-03
            3043             523     48.8157E-03     48.8581E-03
            3027             523     48.8157E-03     48.8581E-03
            3059             524     39.8747E-03     44.0336E-03
            3043             524     39.8747E-03     44.0336E-03
            3059             525     36.8704E-03     40.2719E-03
            3075             525     36.8704E-03     40.2719E-03
            3091             526     45.1601E-03     39.7561E-03
            3075             526     45.1601E-03     39.7561E-03
            3091             527     49.1928E-03     43.5745E-03
            3107             527     49.1928E-03     43.5745E-03
            3107             528     53.2277E-03     47.2451E-03
            3123             528     53.2277E-03     47.2451E-03
            3139             529     57.4809E-03     53.6956E-03
            3123             529     57.4809E-03     53.6956E-03
            3155             530     56.3330E-03     63.7061E-03
            3139             530     56.3330E-03     63.7061E-03
            3171             531     28.8449E-03     35.1008E-03
            3155             531     28.8449E-03     35.1008E-03
            3171             547     1.94920E-03     2.19417E-03
            3172             547     1.94920E-03     2.19417E-03
            2545             547     1.94920E-03     2.19417E-03
            2546             547     1.94920E-03     2.19417E-03
            3172             548     2.04803E-03     2.30024E-03
            3173             548     2.04803E-03     2.30024E-03
            2546             548     2.04803E-03     2.30024E-03
            2547             548     2.04803E-03     2.30024E-03
            3173             549     2.20932E-03     2.46166E-03
            2548             549     2.20932E-03     2.46166E-03
            2547             549     2.20932E-03     2.46166E-03
            3174             549     2.20932E-03     2.46166E-03
            2549             550     2.42083E-03     2.66853E-03
            3175             550     2.42083E-03     2.66853E-03
            2548             550     2.42083E-03     2.66853E-03
            3174             550     2.42083E-03     2.66853E-03
            3176             551     2.67078E-03     2.91127E-03
            2549             551     2.67078E-03     2.91127E-03
            2550             551     2.67078E-03     2.91127E-03
            3175             551     2.67078E-03     2.91127E-03
            2551             552     2.94944E-03     3.18172E-03
            3177             552     2.94944E-03     3.18172E-03
            3176             552     2.94944E-03     3.18172E-03
            2550             552     2.94944E-03     3.18172E-03
            3177             553     3.24944E-03     3.47339E-03
            2551             553     3.24944E-03     3.47339E-03
            3178             553     3.24944E-03     3.47339E-03
            2552             553     3.24944E-03     3.47339E-03
            3178             554     3.56536E-03     3.78139E-03
            2552             554     3.56536E-03     3.78139E-03
            3179             554     3.56536E-03     3.78139E-03
            2553             554     3.56536E-03     3.78139E-03
            2553             555     3.89333E-03     4.10201E-03
            3180             555     3.89333E-03     4.10201E-03
            2554             555     3.89333E-03     4.10201E-03
            3179             555     3.89333E-03     4.10201E-03
            3181             556     4.23052E-03     4.43252E-03
            2554             556     4.23052E-03     4.43252E-03
            2555             556     4.23052E-03     4.43252E-03
            3180             556     4.23052E-03     4.43252E-03
            3182             557     4.57490E-03     4.77085E-03
            2556             557     4.57490E-03     4.77085E-03
            2555             557     4.57490E-03     4.77085E-03
            3181             557     4.57490E-03     4.77085E-03
            2557             558     4.92494E-03     5.11545E-03
            3182             558     4.92494E-03     5.11545E-03
            2556             558     4.92494E-03     5.11545E-03
            3183             558     4.92494E-03     5.11545E-03
            3184             559     5.27952E-03     5.46512E-03
            3183             559     5.27952E-03     5.46512E-03
            2557             559     5.27952E-03     5.46512E-03
            2558             559     5.27952E-03     5.46512E-03
            2559             560     5.63778E-03     5.81895E-03
            3184             560     5.63778E-03     5.81895E-03
            3185             560     5.63778E-03     5.81895E-03
            2558             560     5.63778E-03     5.81895E-03
            3186             561     5.99906E-03     6.17622E-03
            2559             561     5.99906E-03     6.17622E-03
            2560             561     5.99906E-03     6.17622E-03
            3185             561     5.99906E-03     6.17622E-03
            2560             562     22.6166E-15     23.7681E-15
            2576             562     22.6166E-15     23.7681E-15
            2576             563     34.8529E-15     34.8802E-15
            2592             563     34.8529E-15     34.8802E-15
            2608             564     27.0748E-15     28.5656E-15
            2592             564     27.0748E-15     28.5656E-15
            2624             565     13.1483E-15     15.4150E-15
            2608             565     13.1483E-15     15.4150E-15
            2640             566     15.4477E-15     15.6264E-15
            2624             566     15.4477E-15     15.6264E-15
            2640             567     21.0224E-15     19.8273E-15
            2639             567     21.0224E-15     19.8273E-15
            2639             568     15.6490E-15     16.3853E-15
            2638             568     15.6490E-15     16.3853E-15
            2638             569     15.5399E-15     17.1347E-15
            2637             569     15.5399E-15     17.1347E-15
            2636             570     16.0040E-15     15.7237E-15
            2637             570     16.0040E-15     15.7237E-15
            2635             571     11.9784E-15     10.9949E-15
            2636             571     11.9784E-15     10.9949E-15
            2635             572     11.4017E-15     12.2257E-15
            2634             572     11.4017E-15     12.2257E-15
            2634             573     6.05830E-15     11.9301E-15
            2633             573     6.05830E-15     11.9301E-15
            2632             574     8.11970E-15     17.1264E-15
            2633             574     8.11970E-15     17.1264E-15
            2632             575     17.0643E-15     22.9275E-15
            2631             575     17.0643E-15     22.9275E-15
            2631             576     13.6875E-15     14.2561E-15
            2630             576     13.6875E-15     14.2561E-15
            2629             577     15.6877E-15     11.0271E-15
            2630             577     15.6877E-15     11.0271E-15
            2629             578     22.2122E-15     17.0180E-15
            2628             578     22.2122E-15     17.0180E-15
            2628             579     16.4205E-15     17.3900E-15
            2627             579     16.4205E-15     17.3900E-15
            2627             580     13.3176E-15     15.0890E-15
            2626             580     13.3176E-15     15.0890E-15
            2625             581     15.4903E-15     20.1984E-15
            2626             581     15.4903E-15     20.1984E-15
            2609             582     17.3126E-15     21.0919E-15
            2625             582     17.3126E-15     21.0919E-15
            2593             583     22.9284E-15     21.3482E-15
            2609             583     22.9284E-15     21.3482E-15
            2593             584     26.5989E-15     25.3375E-15
            2577             584     26.5989E-15     25.3375E-15
            2577             585     28.9103E-15     30.7955E-15
            2561             585     28.9103E-15     30.7955E-15
            2545             586     25.8256E-15     34.0236E-15
            2561             586     25.8256E-15     34.0236E-15
               1             635     12.8286E-03     14.2666E-03
              17             635     12.8286E-03     14.2666E-03
              18             635     12.8286E-03     14.2666E-03
               2             635     12.8286E-03     14.2666E-03
              19             636     14.0140E-03     13.8176E-03
               2             636     14.0140E-03     13.8176E-03
              18             636     14.0140E-03     13.8176E-03
               3             636     14.0140E-03     13.8176E-03
               3             637     14.7489E-03     13.9714E-03
               4             637     14.7489E-03     13.9714E-03
              20             637     14.7489E-03     13.9714E-03
              19             637     14.7489E-03     13.9714E-03
               4             638     15.5486E-03     14.4820E-03
              21             638     15.5486E-03     14.4820E-03
              20             638     15.5486E-03     14.4820E-03
               5             638     15.5486E-03     14.4820E-03
              22             639     16.4173E-03     15.0847E-03
               5             639     16.4173E-03     15.0847E-03
               6             639     16.4173E-03     15.0847E-03
              21             639     16.4173E-03     15.0847E-03
              22             640     17.3662E-03     15.8199E-03
              23             640     17.3662E-03     15.8199E-03
               7             640     17.3662E-03     15.8199E-03
               6             640     17.3662E-03     15.8199E-03
               8             641     18.3517E-03     16.6230E-03
              24             641     18.3517E-03     16.6230E-03
              23             641     18.3517E-03     16.6230E-03
               7             641     18.3517E-03     16.6230E-03
              25             642     19.3486E-03     17.4420E-03
              24             642     19.3486E-03     17.4420E-03
               9             642     19.3486E-03     17.4420E-03
               8             642     19.3486E-03     17.4420E-03
              25             643     20.2856E-03     18.2230E-03
              10             643     20.2856E-03     18.2230E-03
              26             643     20.2856E-03     18.2230E-03
               9             643     20.2856E-03     18.2230E-03
              11             644     21.0921E-03     18.8627E-03
              27             644     21.0921E-03     18.8627E-03
              26             644     21.0921E-03     18.8627E-03
              10             644     21.0921E-03     18.8627E-03
              28             645     21.5401E-03     19.1308E-03
              27             645     21.5401E-03     19.1308E-03
              11             645     21.5401E-03     19.1308E-03
              12             645     21.5401E-03     19.1308E-03
              28             646     21.5255E-03     18.8637E-03
              29             646     21.5255E-03     18.8637E-03
              12             646     21.5255E-03     18.8637E-03
              13             646     21.5255E-03     18.8637E-03
              30             647     20.3297E-03     17.3443E-03
              13             647     20.3297E-03     17.3443E-03
              14             647     20.3297E-03     17.3443E-03
              29             647     20.3297E-03     17.3443E-03
              14             648     17.8147E-03     14.3307E-03
              30             648     17.8147E-03     14.3307E-03
              15             648     17.8147E-03     14.3307E-03
              31             648     17.8147E-03     14.3307E-03
              31             649     14.0394E-03     13.3560E-03
              16             649     14.0394E-03     13.3560E-03
              15             649     14.0394E-03     13.3560E-03
              32             649     14.0394E-03     13.3560E-03
              34             650     23.9147E-03     25.9276E-03
              17             650     23.9147E-03     25.9276E-03
              33             650     23.9147E-03     25.9276E-03
              18             650     23.9147E-03     25.9276E-03
              35             651     25.1454E-03     25.2115E-03
              19             651     25.1454E-03     25.2115E-03
              34             651     25.1454E-03     25.2115E-03
              18             651     25.1454E-03     25.2115E-03
              36             652     26.6290E-03     25.3519E-03
              19             652     26.6290E-03     25.3519E-03
              20             652     26.6290E-03     25.3519E-03
              35             652     26.6290E-03     25.3519E-03
              20             653     28.1017E-03     26.1770E-03
              21             653     28.1017E-03     26.1770E-03
              36             653     28.1017E-03     26.1770E-03
              37             653     28.1017E-03     26.1770E-03
              37             654     29.6880E-03     27.3189E-03
              21             654     29.6880E-03     27.3189E-03
              38             654     29.6880E-03     27.3189E-03
              22             654     29.6880E-03     27.3189E-03
              23             655     31.4246E-03     28.7107E-03
              39             655     31.4246E-03     28.7107E-03
              22             655     31.4246E-03     28.7107E-03
              38             655     31.4246E-03     28.7107E-03
              40             656     33.2594E-03     30.2560E-03
              24             656     33.2594E-03     30.2560E-03
              23             656     33.2594E-03     30.2560E-03
              39             656     33.2594E-03     30.2560E-03
              41             657     35.1688E-03     31.8947E-03
              25             657     35.1688E-03     31.8947E-03
              24             657     35.1688E-03     31.8947E-03
              40             657     35.1688E-03     31.8947E-03
              25             658     37.0367E-03     33.5334E-03
              42             658     37.0367E-03     33.5334E-03
              41             658     37.0367E-03     33.5334E-03
              26             658     37.0367E-03     33.5334E-03
              26             659     38.7539E-03     34.9831E-03
              42             659     38.7539E-03     34.9831E-03
              43             659     38.7539E-03     34.9831E-03
              27             659     38.7539E-03     34.9831E-03
              27             660     39.9984E-03     35.9899E-03
              28             660     39.9984E-03     35.9899E-03
              44             660     39.9984E-03     35.9899E-03
              43             660     39.9984E-03     35.9899E-03
              29             661     40.1788E-03     35.8836E-03
              45             661     40.1788E-03     35.8836E-03
              28             661     40.1788E-03     35.8836E-03
              44             661     40.1788E-03     35.8836E-03
              46             662     38.4735E-03     33.7860E-03
              30             662     38.4735E-03     33.7860E-03
              45             662     38.4735E-03     33.7860E-03
              29             662     38.4735E-03     33.7860E-03
              31             663     32.3368E-03     27.7065E-03
              47             663     32.3368E-03     27.7065E-03
              46             663     32.3368E-03     27.7065E-03
              30             663     32.3368E-03     27.7065E-03
              31             664     25.4794E-03     24.4681E-03
              48             664     25.4794E-03     24.4681E-03
              47             664     25.4794E-03     24.4681E-03
              32             664     25.4794E-03     24.4681E-03
              49             665     23.4636E-03     22.9275E-03
              34             665     23.4636E-03     22.9275E-03
              33             665     23.4636E-03     22.9275E-03
              50             665     23.4636E-03     22.9275E-03
              51             666     23.4912E-03     23.7154E-03
              50             666     23.4912E-03     23.7154E-03
              35             666     23.4912E-03     23.7154E-03
              34             666     23.4912E-03     23.7154E-03
              52             667     24.6403E-03     24.1561E-03
              35             667     24.6403E-03     24.1561E-03
              36             667     24.6403E-03     24.1561E-03
              51             667     24.6403E-03     24.1561E-03
              37             668     26.1810E-03     25.1291E-03
              53             668     26.1810E-03     25.1291E-03
              52             668     26.1810E-03     25.1291E-03
              36             668     26.1810E-03     25.1291E-03
              38             669     27.8436E-03     26.5522E-03
              54             669     27.8436E-03     26.5522E-03
              37             669     27.8436E-03     26.5522E-03
              53             669     27.8436E-03     26.5522E-03
              54             670     29.7295E-03     28.2305E-03
              39             670     29.7295E-03     28.2305E-03
              38             670     29.7295E-03     28.2305E-03
              55             670     29.7295E-03     28.2305E-03
              40             671     31.7969E-03     30.1526E-03
              39             671     31.7969E-03     30.1526E-03
              55             671     31.7969E-03     30.1526E-03
              56             671     31.7969E-03     30.1526E-03
              56             672     34.0185E-03     32.2522E-03
              40             672     34.0185E-03     32.2522E-03
              57             672     34.0185E-03     32.2522E-03
              41             672     34.0185E-03     32.2522E-03
              42             673     36.3792E-03     34.5012E-03
              57             673     36.3792E-03     34.5012E-03
              58             673     36.3792E-03     34.5012E-03
              41             673     36.3792E-03     34.5012E-03
              42             674     38.7381E-03     36.7716E-03
              43             674     38.7381E-03     36.7716E-03
              58             674     38.7381E-03     36.7716E-03
              59             674     38.7381E-03     36.7716E-03
              59             675     40.9751E-03     38.9111E-03
              43             675     40.9751E-03     38.9111E-03
              60             675     40.9751E-03     38.9111E-03
              44             675     40.9751E-03     38.9111E-03
              45             676     42.2976E-03     40.2881E-03
              60             676     42.2976E-03     40.2881E-03
              61             676     42.2976E-03     40.2881E-03
              44             676     42.2976E-03     40.2881E-03
              45             677     41.6379E-03     39.9199E-03
              46             677     41.6379E-03     39.9199E-03
              62             677     41.6379E-03     39.9199E-03
              61             677     41.6379E-03     39.9199E-03
              46             678     36.1327E-03     35.3944E-03
              47             678     36.1327E-03     35.3944E-03
              63             678     36.1327E-03     35.3944E-03
              62             678     36.1327E-03     35.3944E-03
              47             679     33.4094E-03     33.0289E-03
              48             679     33.4094E-03     33.0289E-03
              63             679     33.4094E-03     33.0289E-03
              64             679     33.4094E-03     33.0289E-03
              66             680     22.0672E-03     20.1708E-03
              49             680     22.0672E-03     20.1708E-03
              65             680     22.0672E-03     20.1708E-03
              50             680     22.0672E-03     20.1708E-03
              67             681     22.2945E-03     21.5140E-03
              66             681     22.2945E-03     21.5140E-03
              51             681     22.2945E-03     21.5140E-03
              50             681     22.2945E-03     21.5140E-03
              68             682     22.9553E-03     22.8751E-03
              52             682     22.9553E-03     22.8751E-03
              67             682     22.9553E-03     22.8751E-03
              51             682     22.9553E-03     22.8751E-03
              52             683     24.2789E-03     24.2474E-03
              68             683     24.2789E-03     24.2474E-03
              53             683     24.2789E-03     24.2474E-03
              69             683     24.2789E-03     24.2474E-03
              54             684     26.0184E-03     25.9185E-03
              69             684     26.0184E-03     25.9185E-03
              53             684     26.0184E-03     25.9185E-03
              70             684     26.0184E-03     25.9185E-03
              71             685     28.0151E-03     27.8820E-03
              54             685     28.0151E-03     27.8820E-03
              70             685     28.0151E-03     27.8820E-03
              55             685     28.0151E-03     27.8820E-03
              55             686     30.2504E-03     30.0962E-03
              72             686     30.2504E-03     30.0962E-03
              56             686     30.2504E-03     30.0962E-03
              71             686     30.2504E-03     30.0962E-03
              57             687     32.6946E-03     32.5369E-03
              56             687     32.6946E-03     32.5369E-03
              72             687     32.6946E-03     32.5369E-03
              73             687     32.6946E-03     32.5369E-03
              74             688     35.3182E-03     35.1611E-03
              58             688     35.3182E-03     35.1611E-03
              57             688     35.3182E-03     35.1611E-03
              73             688     35.3182E-03     35.1611E-03
              74             689     38.1036E-03     37.9634E-03
              75             689     38.1036E-03     37.9634E-03
              59             689     38.1036E-03     37.9634E-03
              58             689     38.1036E-03     37.9634E-03
              76             690     40.7616E-03     40.7012E-03
              75             690     40.7616E-03     40.7012E-03
              60             690     40.7616E-03     40.7012E-03
              59             690     40.7616E-03     40.7012E-03
              61             691     43.1802E-03     43.1943E-03
              76             691     43.1802E-03     43.1943E-03
              77             691     43.1802E-03     43.1943E-03
              60             691     43.1802E-03     43.1943E-03
              78             692     43.6289E-03     44.2619E-03
              62             692     43.6289E-03     44.2619E-03
              61             692     43.6289E-03     44.2619E-03
              77             692     43.6289E-03     44.2619E-03
              62             693     41.8002E-03     43.1012E-03
              78             693     41.8002E-03     43.1012E-03
              63             693     41.8002E-03     43.1012E-03
              79             693     41.8002E-03     43.1012E-03
              63             694     44.7343E-03     44.8148E-03
              80             694     44.7343E-03     44.8148E-03
              64             694     44.7343E-03     44.8148E-03
              79             694     44.7343E-03     44.8148E-03
              65             695     20.3354E-03     18.4552E-03
              82             695     20.3354E-03     18.4552E-03
              81             695     20.3354E-03     18.4552E-03
              66             695     20.3354E-03     18.4552E-03
              82             696     20.5562E-03     19.8343E-03
              66             696     20.5562E-03     19.8343E-03
              67             696     20.5562E-03     19.8343E-03
              83             696     20.5562E-03     19.8343E-03
              67             697     21.1487E-03     21.6563E-03
              84             697     21.1487E-03     21.6563E-03
              68             697     21.1487E-03     21.6563E-03
              83             697     21.1487E-03     21.6563E-03
              84             698     22.3724E-03     23.4258E-03
              85             698     22.3724E-03     23.4258E-03
              68             698     22.3724E-03     23.4258E-03
              69             698     22.3724E-03     23.4258E-03
              85             699     24.1326E-03     25.3429E-03
              70             699     24.1326E-03     25.3429E-03
              86             699     24.1326E-03     25.3429E-03
              69             699     24.1326E-03     25.3429E-03
              87             700     26.1998E-03     27.5405E-03
              86             700     26.1998E-03     27.5405E-03
              71             700     26.1998E-03     27.5405E-03
              70             700     26.1998E-03     27.5405E-03
              72             701     28.5080E-03     29.9444E-03
              71             701     28.5080E-03     29.9444E-03
              87             701     28.5080E-03     29.9444E-03
              88             701     28.5080E-03     29.9444E-03
              88             702     31.0325E-03     32.5475E-03
              89             702     31.0325E-03     32.5475E-03
              73             702     31.0325E-03     32.5475E-03
              72             702     31.0325E-03     32.5475E-03
              73             703     33.7281E-03     35.3269E-03
              89             703     33.7281E-03     35.3269E-03
              90             703     33.7281E-03     35.3269E-03
              74             703     33.7281E-03     35.3269E-03
              90             704     36.5678E-03     38.2460E-03
              91             704     36.5678E-03     38.2460E-03
              74             704     36.5678E-03     38.2460E-03
              75             704     36.5678E-03     38.2460E-03
              75             705     39.5049E-03     41.3127E-03
              92             705     39.5049E-03     41.3127E-03
              76             705     39.5049E-03     41.3127E-03
              91             705     39.5049E-03     41.3127E-03
              92             706     42.2923E-03     44.2858E-03
              76             706     42.2923E-03     44.2858E-03
              93             706     42.2923E-03     44.2858E-03
              77             706     42.2923E-03     44.2858E-03
              77             707     45.2967E-03     47.2878E-03
              93             707     45.2967E-03     47.2878E-03
              78             707     45.2967E-03     47.2878E-03
              94             707     45.2967E-03     47.2878E-03
              78             708     49.0391E-03     50.5421E-03
              94             708     49.0391E-03     50.5421E-03
              95             708     49.0391E-03     50.5421E-03
              79             708     49.0391E-03     50.5421E-03
              80             709     55.9351E-03     57.3432E-03
              96             709     55.9351E-03     57.3432E-03
              95             709     55.9351E-03     57.3432E-03
              79             709     55.9351E-03     57.3432E-03
              97             710     18.2793E-03     17.2713E-03
              98             710     18.2793E-03     17.2713E-03
              81             710     18.2793E-03     17.2713E-03
              82             710     18.2793E-03     17.2713E-03
              82             711     18.1908E-03     19.0006E-03
              98             711     18.1908E-03     19.0006E-03
              99             711     18.1908E-03     19.0006E-03
              83             711     18.1908E-03     19.0006E-03
              84             712     18.9857E-03     20.6757E-03
              99             712     18.9857E-03     20.6757E-03
              83             712     18.9857E-03     20.6757E-03
             100             712     18.9857E-03     20.6757E-03
             100             713     20.3860E-03     22.6175E-03
              85             713     20.3860E-03     22.6175E-03
             101             713     20.3860E-03     22.6175E-03
              84             713     20.3860E-03     22.6175E-03
              86             714     22.1414E-03     24.8085E-03
              85             714     22.1414E-03     24.8085E-03
             101             714     22.1414E-03     24.8085E-03
             102             714     22.1414E-03     24.8085E-03
              86             715     24.2330E-03     27.1564E-03
             102             715     24.2330E-03     27.1564E-03
             103             715     24.2330E-03     27.1564E-03
              87             715     24.2330E-03     27.1564E-03
             103             716     26.5630E-03     29.6831E-03
             104             716     26.5630E-03     29.6831E-03
              87             716     26.5630E-03     29.6831E-03
              88             716     26.5630E-03     29.6831E-03
             104             717     29.0577E-03     32.3207E-03
              89             717     29.0577E-03     32.3207E-03
              88             717     29.0577E-03     32.3207E-03
             105             717     29.0577E-03     32.3207E-03
              89             718     31.6992E-03     35.0807E-03
             106             718     31.6992E-03     35.0807E-03
             105             718     31.6992E-03     35.0807E-03
              90             718     31.6992E-03     35.0807E-03
              91             719     34.4280E-03     37.9315E-03
             107             719     34.4280E-03     37.9315E-03
              90             719     34.4280E-03     37.9315E-03
             106             719     34.4280E-03     37.9315E-03
             108             720     37.3589E-03     40.9742E-03
             107             720     37.3589E-03     40.9742E-03
              91             720     37.3589E-03     40.9742E-03
              92             720     37.3589E-03     40.9742E-03
             108             721     40.5403E-03     44.3345E-03
              93             721     40.5403E-03     44.3345E-03
             109             721     40.5403E-03     44.3345E-03
              92             721     40.5403E-03     44.3345E-03
              94             722     45.0023E-03     48.6378E-03
              93             722     45.0023E-03     48.6378E-03
             109             722     45.0023E-03     48.6378E-03
             110             722     45.0023E-03     48.6378E-03
             111             723     53.9006E-03     56.3821E-03
              94             723     53.9006E-03     56.3821E-03
              95             723     53.9006E-03     56.3821E-03
             110             723     53.9006E-03     56.3821E-03
              96             724     67.9321E-03     68.3157E-03
             112             724     67.9321E-03     68.3157E-03
             111             724     67.9321E-03     68.3157E-03
              95             724     67.9321E-03     68.3157E-03
             114             725     15.1833E-03     16.9228E-03
              98             725     15.1833E-03     16.9228E-03
              97             725     15.1833E-03     16.9228E-03
             113             725     15.1833E-03     16.9228E-03
              98             726     15.6881E-03     18.0993E-03
              99             726     15.6881E-03     18.0993E-03
             114             726     15.6881E-03     18.0993E-03
             115             726     15.6881E-03     18.0993E-03
             116             727     16.7679E-03     19.7954E-03
             115             727     16.7679E-03     19.7954E-03
             100             727     16.7679E-03     19.7954E-03
              99             727     16.7679E-03     19.7954E-03
             100             728     18.2211E-03     21.9299E-03
             116             728     18.2211E-03     21.9299E-03
             117             728     18.2211E-03     21.9299E-03
             101             728     18.2211E-03     21.9299E-03
             117             729     20.0217E-03     24.2870E-03
             101             729     20.0217E-03     24.2870E-03
             102             729     20.0217E-03     24.2870E-03
             118             729     20.0217E-03     24.2870E-03
             102             730     22.1279E-03     26.7843E-03
             118             730     22.1279E-03     26.7843E-03
             119             730     22.1279E-03     26.7843E-03
             103             730     22.1279E-03     26.7843E-03
             119             731     24.4515E-03     29.3654E-03
             120             731     24.4515E-03     29.3654E-03
             104             731     24.4515E-03     29.3654E-03
             103             731     24.4515E-03     29.3654E-03
             121             732     26.9190E-03     32.0294E-03
             104             732     26.9190E-03     32.0294E-03
             105             732     26.9190E-03     32.0294E-03
             120             732     26.9190E-03     32.0294E-03
             121             733     29.4725E-03     34.7140E-03
             122             733     29.4725E-03     34.7140E-03
             105             733     29.4725E-03     34.7140E-03
             106             733     29.4725E-03     34.7140E-03
             123             734     32.1523E-03     37.5064E-03
             122             734     32.1523E-03     37.5064E-03
             106             734     32.1523E-03     37.5064E-03
             107             734     32.1523E-03     37.5064E-03
             124             735     34.9693E-03     40.4264E-03
             108             735     34.9693E-03     40.4264E-03
             123             735     34.9693E-03     40.4264E-03
             107             735     34.9693E-03     40.4264E-03
             109             736     38.5621E-03     44.0654E-03
             125             736     38.5621E-03     44.0654E-03
             124             736     38.5621E-03     44.0654E-03
             108             736     38.5621E-03     44.0654E-03
             110             737     43.5349E-03     49.1526E-03
             109             737     43.5349E-03     49.1526E-03
             126             737     43.5349E-03     49.1526E-03
             125             737     43.5349E-03     49.1526E-03
             111             738     53.2271E-03     58.9173E-03
             126             738     53.2271E-03     58.9173E-03
             110             738     53.2271E-03     58.9173E-03
             127             738     53.2271E-03     58.9173E-03
             128             739     74.3906E-03     79.1860E-03
             127             739     74.3906E-03     79.1860E-03
             112             739     74.3906E-03     79.1860E-03
             111             739     74.3906E-03     79.1860E-03
             113             740     21.7668E-03     24.5915E-03
             129             740     21.7668E-03     24.5915E-03
             130             740     21.7668E-03     24.5915E-03
             114             740     21.7668E-03     24.5915E-03
             114             741     24.6882E-03     25.4102E-03
             115             741     24.6882E-03     25.4102E-03
             130             741     24.6882E-03     25.4102E-03
             131             741     24.6882E-03     25.4102E-03
             131             742     27.3943E-03     27.8245E-03
             116             742     27.3943E-03     27.8245E-03
             115             742     27.3943E-03     27.8245E-03
             132             742     27.3943E-03     27.8245E-03
             117             743     30.6344E-03     31.2328E-03
             133             743     30.6344E-03     31.2328E-03
             132             743     30.6344E-03     31.2328E-03
             116             743     30.6344E-03     31.2328E-03
             133             744     34.3016E-03     34.9635E-03
             117             744     34.3016E-03     34.9635E-03
             134             744     34.3016E-03     34.9635E-03
             118             744     34.3016E-03     34.9635E-03
             134             745     38.3035E-03     39.0602E-03
             118             745     38.3035E-03     39.0602E-03
             135             745     38.3035E-03     39.0602E-03
             119             745     38.3035E-03     39.0602E-03
             135             746     42.4942E-03     43.2766E-03
             119             746     42.4942E-03     43.2766E-03
             120             746     42.4942E-03     43.2766E-03
             136             746     42.4942E-03     43.2766E-03
             136             747     46.8161E-03     47.6323E-03
             120             747     46.8161E-03     47.6323E-03
             121             747     46.8161E-03     47.6323E-03
             137             747     46.8161E-03     47.6323E-03
             122             748     51.1572E-03     51.9590E-03
             121             748     51.1572E-03     51.9590E-03
             137             748     51.1572E-03     51.9590E-03
             138             748     51.1572E-03     51.9590E-03
             139             749     55.4965E-03     56.2674E-03
             123             749     55.4965E-03     56.2674E-03
             122             749     55.4965E-03     56.2674E-03
             138             749     55.4965E-03     56.2674E-03
             140             750     59.7585E-03     60.4406E-03
             123             750     59.7585E-03     60.4406E-03
             124             750     59.7585E-03     60.4406E-03
             139             750     59.7585E-03     60.4406E-03
             140             751     63.9129E-03     64.4503E-03
             124             751     63.9129E-03     64.4503E-03
             141             751     63.9129E-03     64.4503E-03
             125             751     63.9129E-03     64.4503E-03
             142             752     68.2039E-03     68.4466E-03
             125             752     68.2039E-03     68.4466E-03
             141             752     68.2039E-03     68.4466E-03
             126             752     68.2039E-03     68.4466E-03
             143             753     72.5550E-03     72.8409E-03
             126             753     72.5550E-03     72.8409E-03
             142             753     72.5550E-03     72.8409E-03
             127             753     72.5550E-03     72.8409E-03
             144             754     79.5840E-03     81.3440E-03
             143             754     79.5840E-03     81.3440E-03
             128             754     79.5840E-03     81.3440E-03
             127             754     79.5840E-03     81.3440E-03
             146             755     28.6614E-03     30.8924E-03
             130             755     28.6614E-03     30.8924E-03
             129             755     28.6614E-03     30.8924E-03
             145             755     28.6614E-03     30.8924E-03
             131             756     32.2783E-03     31.8415E-03
             146             756     32.2783E-03     31.8415E-03
             130             756     32.2783E-03     31.8415E-03
             147             756     32.2783E-03     31.8415E-03
             132             757     36.9852E-03     35.0722E-03
             131             757     36.9852E-03     35.0722E-03
             148             757     36.9852E-03     35.0722E-03
             147             757     36.9852E-03     35.0722E-03
             133             758     42.2588E-03     39.7747E-03
             148             758     42.2588E-03     39.7747E-03
             149             758     42.2588E-03     39.7747E-03
             132             758     42.2588E-03     39.7747E-03
             150             759     47.9788E-03     45.2088E-03
             134             759     47.9788E-03     45.2088E-03
             133             759     47.9788E-03     45.2088E-03
             149             759     47.9788E-03     45.2088E-03
             150             760     54.0611E-03     51.0983E-03
             151             760     54.0611E-03     51.0983E-03
             134             760     54.0611E-03     51.0983E-03
             135             760     54.0611E-03     51.0983E-03
             136             761     60.3700E-03     57.2661E-03
             151             761     60.3700E-03     57.2661E-03
             135             761     60.3700E-03     57.2661E-03
             152             761     60.3700E-03     57.2661E-03
             152             762     66.7995E-03     63.6029E-03
             153             762     66.7995E-03     63.6029E-03
             136             762     66.7995E-03     63.6029E-03
             137             762     66.7995E-03     63.6029E-03
             137             763     73.3250E-03     70.0066E-03
             154             763     73.3250E-03     70.0066E-03
             153             763     73.3250E-03     70.0066E-03
             138             763     73.3250E-03     70.0066E-03
             139             764     79.7751E-03     76.3870E-03
             154             764     79.7751E-03     76.3870E-03
             155             764     79.7751E-03     76.3870E-03
             138             764     79.7751E-03     76.3870E-03
             155             765     86.1164E-03     82.5248E-03
             156             765     86.1164E-03     82.5248E-03
             139             765     86.1164E-03     82.5248E-03
             140             765     86.1164E-03     82.5248E-03
             140             766     91.7815E-03     88.0397E-03
             141             766     91.7815E-03     88.0397E-03
             156             766     91.7815E-03     88.0397E-03
             157             766     91.7815E-03     88.0397E-03
             141             767     95.8570E-03     91.9806E-03
             158             767     95.8570E-03     91.9806E-03
             142             767     95.8570E-03     91.9806E-03
             157             767     95.8570E-03     91.9806E-03
             143             768     96.3869E-03     92.3853E-03
             158             768     96.3869E-03     92.3853E-03
             159             768     96.3869E-03     92.3853E-03
             142             768     96.3869E-03     92.3853E-03
             160             769     90.2244E-03     86.8894E-03
             143             769     90.2244E-03     86.8894E-03
             144             769     90.2244E-03     86.8894E-03
             159             769     90.2244E-03     86.8894E-03
             145             770     25.5418E-03     25.6963E-03
             161             770     25.5418E-03     25.6963E-03
             162             770     25.5418E-03     25.6963E-03
             146             770     25.5418E-03     25.6963E-03
             163             771     27.9960E-03     28.8105E-03
             147             771     27.9960E-03     28.8105E-03
             146             771     27.9960E-03     28.8105E-03
             162             771     27.9960E-03     28.8105E-03
             147             772     32.8320E-03     32.7060E-03
             148             772     32.8320E-03     32.7060E-03
             164             772     32.8320E-03     32.7060E-03
             163             772     32.8320E-03     32.7060E-03
             149             773     38.5188E-03     38.0011E-03
             165             773     38.5188E-03     38.0011E-03
             148             773     38.5188E-03     38.0011E-03
             164             773     38.5188E-03     38.0011E-03
             149             774     44.6488E-03     44.0408E-03
             150             774     44.6488E-03     44.0408E-03
             166             774     44.6488E-03     44.0408E-03
             165             774     44.6488E-03     44.0408E-03
             151             775     51.1419E-03     50.4826E-03
             166             775     51.1419E-03     50.4826E-03
             150             775     51.1419E-03     50.4826E-03
             167             775     51.1419E-03     50.4826E-03
             151             776     57.8585E-03     57.2036E-03
             168             776     57.8585E-03     57.2036E-03
             167             776     57.8585E-03     57.2036E-03
             152             776     57.8585E-03     57.2036E-03
             153             777     64.7822E-03     64.1053E-03
             168             777     64.7822E-03     64.1053E-03
             169             777     64.7822E-03     64.1053E-03
             152             777     64.7822E-03     64.1053E-03
             154             778     71.8422E-03     71.1719E-03
             170             778     71.8422E-03     71.1719E-03
             169             778     71.8422E-03     71.1719E-03
             153             778     71.8422E-03     71.1719E-03
             154             779     79.0751E-03     78.3904E-03
             155             779     79.0751E-03     78.3904E-03
             170             779     79.0751E-03     78.3904E-03
             171             779     79.0751E-03     78.3904E-03
             155             780     86.3132E-03     85.6917E-03
             171             780     86.3132E-03     85.6917E-03
             156             780     86.3132E-03     85.6917E-03
             172             780     86.3132E-03     85.6917E-03
             173             781     93.5272E-03     92.9501E-03
             157             781     93.5272E-03     92.9501E-03
             156             781     93.5272E-03     92.9501E-03
             172             781     93.5272E-03     92.9501E-03
             174             782     99.6916E-03     99.5291E-03
             158             782     99.6916E-03     99.5291E-03
             173             782     99.6916E-03     99.5291E-03
             157             782     99.6916E-03     99.5291E-03
             159             783     101.887E-03     103.101E-03
             174             783     101.887E-03     103.101E-03
             175             783     101.887E-03     103.101E-03
             158             783     101.887E-03     103.101E-03
             176             784     102.768E-03     104.050E-03
             175             784     102.768E-03     104.050E-03
             160             784     102.768E-03     104.050E-03
             159             784     102.768E-03     104.050E-03
             178             785     21.5801E-03     20.4371E-03
             162             785     21.5801E-03     20.4371E-03
             177             785     21.5801E-03     20.4371E-03
             161             785     21.5801E-03     20.4371E-03
             178             786     24.3617E-03     25.2905E-03
             162             786     24.3617E-03     25.2905E-03
             179             786     24.3617E-03     25.2905E-03
             163             786     24.3617E-03     25.2905E-03
             179             787     28.9596E-03     30.7614E-03
             180             787     28.9596E-03     30.7614E-03
             163             787     28.9596E-03     30.7614E-03
             164             787     28.9596E-03     30.7614E-03
             181             788     34.9324E-03     36.7246E-03
             164             788     34.9324E-03     36.7246E-03
             180             788     34.9324E-03     36.7246E-03
             165             788     34.9324E-03     36.7246E-03
             166             789     41.4596E-03     43.2825E-03
             182             789     41.4596E-03     43.2825E-03
             165             789     41.4596E-03     43.2825E-03
             181             789     41.4596E-03     43.2825E-03
             182             790     48.2735E-03     50.1729E-03
             167             790     48.2735E-03     50.1729E-03
             166             790     48.2735E-03     50.1729E-03
             183             790     48.2735E-03     50.1729E-03
             167             791     55.3258E-03     57.2676E-03
             184             791     55.3258E-03     57.2676E-03
             168             791     55.3258E-03     57.2676E-03
             183             791     55.3258E-03     57.2676E-03
             184             792     62.5441E-03     64.5294E-03
             185             792     62.5441E-03     64.5294E-03
             168             792     62.5441E-03     64.5294E-03
             169             792     62.5441E-03     64.5294E-03
             169             793     69.9153E-03     71.9438E-03
             170             793     69.9153E-03     71.9438E-03
             185             793     69.9153E-03     71.9438E-03
             186             793     69.9153E-03     71.9438E-03
             170             794     77.4386E-03     79.5252E-03
             171             794     77.4386E-03     79.5252E-03
             186             794     77.4386E-03     79.5252E-03
             187             794     77.4386E-03     79.5252E-03
             172             795     85.1084E-03     87.3552E-03
             187             795     85.1084E-03     87.3552E-03
             188             795     85.1084E-03     87.3552E-03
             171             795     85.1084E-03     87.3552E-03
             189             796     92.8509E-03     95.3630E-03
             188             796     92.8509E-03     95.3630E-03
             173             796     92.8509E-03     95.3630E-03
             172             796     92.8509E-03     95.3630E-03
             190             797     100.908E-03     103.694E-03
             173             797     100.908E-03     103.694E-03
             189             797     100.908E-03     103.694E-03
             174             797     100.908E-03     103.694E-03
             175             798     108.346E-03     111.365E-03
             190             798     108.346E-03     111.365E-03
             174             798     108.346E-03     111.365E-03
             191             798     108.346E-03     111.365E-03
             176             799     115.724E-03     118.743E-03
             175             799     115.724E-03     118.743E-03
             192             799     115.724E-03     118.743E-03
             191             799     115.724E-03     118.743E-03
             193             800     17.0526E-03     17.0207E-03
             194             800     17.0526E-03     17.0207E-03
             177             800     17.0526E-03     17.0207E-03
             178             800     17.0526E-03     17.0207E-03
             179             801     20.1260E-03     22.6241E-03
             194             801     20.1260E-03     22.6241E-03
             195             801     20.1260E-03     22.6241E-03
             178             801     20.1260E-03     22.6241E-03
             196             802     25.2579E-03     29.1749E-03
             195             802     25.2579E-03     29.1749E-03
             179             802     25.2579E-03     29.1749E-03
             180             802     25.2579E-03     29.1749E-03
             180             803     31.5204E-03     35.8779E-03
             197             803     31.5204E-03     35.8779E-03
             181             803     31.5204E-03     35.8779E-03
             196             803     31.5204E-03     35.8779E-03
             197             804     38.3255E-03     42.8563E-03
             198             804     38.3255E-03     42.8563E-03
             181             804     38.3255E-03     42.8563E-03
             182             804     38.3255E-03     42.8563E-03
             198             805     45.4013E-03     50.0303E-03
             182             805     45.4013E-03     50.0303E-03
             183             805     45.4013E-03     50.0303E-03
             199             805     45.4013E-03     50.0303E-03
             199             806     52.6365E-03     57.3287E-03
             183             806     52.6365E-03     57.3287E-03
             200             806     52.6365E-03     57.3287E-03
             184             806     52.6365E-03     57.3287E-03
             200             807     59.9727E-03     64.7087E-03
             184             807     59.9727E-03     64.7087E-03
             201             807     59.9727E-03     64.7087E-03
             185             807     59.9727E-03     64.7087E-03
             201             808     67.4119E-03     72.1687E-03
             202             808     67.4119E-03     72.1687E-03
             185             808     67.4119E-03     72.1687E-03
             186             808     67.4119E-03     72.1687E-03
             203             809     74.8839E-03     79.7154E-03
             186             809     74.8839E-03     79.7154E-03
             202             809     74.8839E-03     79.7154E-03
             187             809     74.8839E-03     79.7154E-03
             203             810     82.5304E-03     87.4311E-03
             204             810     82.5304E-03     87.4311E-03
             188             810     82.5304E-03     87.4311E-03
             187             810     82.5304E-03     87.4311E-03
             188             811     90.3821E-03     95.5446E-03
             205             811     90.3821E-03     95.5446E-03
             204             811     90.3821E-03     95.5446E-03
             189             811     90.3821E-03     95.5446E-03
             205             812     99.0870E-03     104.407E-03
             206             812     99.0870E-03     104.407E-03
             190             812     99.0870E-03     104.407E-03
             189             812     99.0870E-03     104.407E-03
             191             813     112.165E-03     116.325E-03
             206             813     112.165E-03     116.325E-03
             207             813     112.165E-03     116.325E-03
             190             813     112.165E-03     116.325E-03
             191             814     128.188E-03     129.793E-03
             207             814     128.188E-03     129.793E-03
             208             814     128.188E-03     129.793E-03
             192             814     128.188E-03     129.793E-03
             193             815     11.7953E-03     14.6344E-03
             210             815     11.7953E-03     14.6344E-03
             194             815     11.7953E-03     14.6344E-03
             209             815     11.7953E-03     14.6344E-03
             194             816     15.6551E-03     21.2598E-03
             195             816     15.6551E-03     21.2598E-03
             210             816     15.6551E-03     21.2598E-03
             211             816     15.6551E-03     21.2598E-03
             212             817     21.5998E-03     28.2356E-03
             195             817     21.5998E-03     28.2356E-03
             196             817     21.5998E-03     28.2356E-03
             211             817     21.5998E-03     28.2356E-03
             197             818     28.2476E-03     35.4956E-03
             212             818     28.2476E-03     35.4956E-03
             213             818     28.2476E-03     35.4956E-03
             196             818     28.2476E-03     35.4956E-03
             198             819     35.2931E-03     42.7422E-03
             197             819     35.2931E-03     42.7422E-03
             213             819     35.2931E-03     42.7422E-03
             214             819     35.2931E-03     42.7422E-03
             199             820     42.5248E-03     50.0473E-03
             214             820     42.5248E-03     50.0473E-03
             198             820     42.5248E-03     50.0473E-03
             215             820     42.5248E-03     50.0473E-03
             199             821     49.8148E-03     57.3701E-03
             200             821     49.8148E-03     57.3701E-03
             215             821     49.8148E-03     57.3701E-03
             216             821     49.8148E-03     57.3701E-03
             216             822     57.1495E-03     64.7094E-03
             217             822     57.1495E-03     64.7094E-03
             201             822     57.1495E-03     64.7094E-03
             200             822     57.1495E-03     64.7094E-03
             217             823     64.4516E-03     72.0101E-03
             202             823     64.4516E-03     72.0101E-03
             201             823     64.4516E-03     72.0101E-03
             218             823     64.4516E-03     72.0101E-03
             202             824     71.8002E-03     79.3217E-03
             219             824     71.8002E-03     79.3217E-03
             218             824     71.8002E-03     79.3217E-03
             203             824     71.8002E-03     79.3217E-03
             220             825     79.1603E-03     86.6421E-03
             204             825     79.1603E-03     86.6421E-03
             219             825     79.1603E-03     86.6421E-03
             203             825     79.1603E-03     86.6421E-03
             220             826     87.0529E-03     94.4064E-03
             221             826     87.0529E-03     94.4064E-03
             205             826     87.0529E-03     94.4064E-03
             204             826     87.0529E-03     94.4064E-03
             221             827     96.0212E-03     103.233E-03
             206             827     96.0212E-03     103.233E-03
             222             827     96.0212E-03     103.233E-03
             205             827     96.0212E-03     103.233E-03
             222             828     109.316E-03     116.333E-03
             223             828     109.316E-03     116.333E-03
             206             828     109.316E-03     116.333E-03
             207             828     109.316E-03     116.333E-03
             223             829     133.491E-03     138.921E-03
             224             829     133.491E-03     138.921E-03
             208             829     133.491E-03     138.921E-03
             207             829     133.491E-03     138.921E-03
             226             830     24.6708E-03     29.2198E-03
             209             830     24.6708E-03     29.2198E-03
             225             830     24.6708E-03     29.2198E-03
             210             830     24.6708E-03     29.2198E-03
             227             831     30.6623E-03     33.7316E-03
             210             831     30.6623E-03     33.7316E-03
             226             831     30.6623E-03     33.7316E-03
             211             831     30.6623E-03     33.7316E-03
             228             832     37.3248E-03     40.4699E-03
             212             832     37.3248E-03     40.4699E-03
             211             832     37.3248E-03     40.4699E-03
             227             832     37.3248E-03     40.4699E-03
             228             833     44.8852E-03     48.1653E-03
             229             833     44.8852E-03     48.1653E-03
             212             833     44.8852E-03     48.1653E-03
             213             833     44.8852E-03     48.1653E-03
             229             834     53.0141E-03     56.2843E-03
             213             834     53.0141E-03     56.2843E-03
             214             834     53.0141E-03     56.2843E-03
             230             834     53.0141E-03     56.2843E-03
             215             835     61.4197E-03     64.6525E-03
             214             835     61.4197E-03     64.6525E-03
             230             835     61.4197E-03     64.6525E-03
             231             835     61.4197E-03     64.6525E-03
             216             836     70.0123E-03     73.1591E-03
             231             836     70.0123E-03     73.1591E-03
             232             836     70.0123E-03     73.1591E-03
             215             836     70.0123E-03     73.1591E-03
             232             837     78.6011E-03     81.6809E-03
             233             837     78.6011E-03     81.6809E-03
             217             837     78.6011E-03     81.6809E-03
             216             837     78.6011E-03     81.6809E-03
             233             838     87.1668E-03     90.1126E-03
             234             838     87.1668E-03     90.1126E-03
             217             838     87.1668E-03     90.1126E-03
             218             838     87.1668E-03     90.1126E-03
             235             839     95.5410E-03     98.3511E-03
             234             839     95.5410E-03     98.3511E-03
             218             839     95.5410E-03     98.3511E-03
             219             839     95.5410E-03     98.3511E-03
             220             840     103.726E-03     106.168E-03
             235             840     103.726E-03     106.168E-03
             236             840     103.726E-03     106.168E-03
             219             840     103.726E-03     106.168E-03
             236             841     111.587E-03     113.583E-03
             237             841     111.587E-03     113.583E-03
             220             841     111.587E-03     113.583E-03
             221             841     111.587E-03     113.583E-03
             222             842     119.371E-03     120.607E-03
             237             842     119.371E-03     120.607E-03
             238             842     119.371E-03     120.607E-03
             221             842     119.371E-03     120.607E-03
             222             843     127.105E-03     127.780E-03
             223             843     127.105E-03     127.780E-03
             238             843     127.105E-03     127.780E-03
             239             843     127.105E-03     127.780E-03
             240             844     137.695E-03     140.144E-03
             224             844     137.695E-03     140.144E-03
             223             844     137.695E-03     140.144E-03
             239             844     137.695E-03     140.144E-03
             242             845     38.0107E-03     42.1721E-03
             241             845     38.0107E-03     42.1721E-03
             225             845     38.0107E-03     42.1721E-03
             226             845     38.0107E-03     42.1721E-03
             227             846     44.0978E-03     44.7600E-03
             242             846     44.0978E-03     44.7600E-03
             226             846     44.0978E-03     44.7600E-03
             243             846     44.0978E-03     44.7600E-03
             227             847     51.9922E-03     51.0246E-03
             243             847     51.9922E-03     51.0246E-03
             244             847     51.9922E-03     51.0246E-03
             228             847     51.9922E-03     51.0246E-03
             228             848     60.8339E-03     59.4029E-03
             229             848     60.8339E-03     59.4029E-03
             244             848     60.8339E-03     59.4029E-03
             245             848     60.8339E-03     59.4029E-03
             230             849     70.3460E-03     68.7467E-03
             229             849     70.3460E-03     68.7467E-03
             245             849     70.3460E-03     68.7467E-03
             246             849     70.3460E-03     68.7467E-03
             247             850     80.3653E-03     78.6457E-03
             230             850     80.3653E-03     78.6457E-03
             231             850     80.3653E-03     78.6457E-03
             246             850     80.3653E-03     78.6457E-03
             232             851     90.6367E-03     88.8465E-03
             248             851     90.6367E-03     88.8465E-03
             231             851     90.6367E-03     88.8465E-03
             247             851     90.6367E-03     88.8465E-03
             249             852     101.080E-03     99.1740E-03
             248             852     101.080E-03     99.1740E-03
             232             852     101.080E-03     99.1740E-03
             233             852     101.080E-03     99.1740E-03
             250             853     111.505E-03     109.510E-03
             233             853     111.505E-03     109.510E-03
             249             853     111.505E-03     109.510E-03
             234             853     111.505E-03     109.510E-03
             250             854     121.840E-03     119.624E-03
             235             854     121.840E-03     119.624E-03
             251             854     121.840E-03     119.624E-03
             234             854     121.840E-03     119.624E-03
             235             855     131.763E-03     129.326E-03
             251             855     131.763E-03     129.326E-03
             252             855     131.763E-03     129.326E-03
             236             855     131.763E-03     129.326E-03
             237             856     140.770E-03     138.006E-03
             236             856     140.770E-03     138.006E-03
             252             856     140.770E-03     138.006E-03
             253             856     140.770E-03     138.006E-03
             253             857     148.169E-03     144.974E-03
             237             857     148.169E-03     144.974E-03
             254             857     148.169E-03     144.974E-03
             238             857     148.169E-03     144.974E-03
             238             858     151.892E-03     148.844E-03
             255             858     151.892E-03     148.844E-03
             254             858     151.892E-03     148.844E-03
             239             858     151.892E-03     148.844E-03
             239             859     150.264E-03     146.988E-03
             256             859     150.264E-03     146.988E-03
             240             859     150.264E-03     146.988E-03
             255             859     150.264E-03     146.988E-03
             241             860     32.7747E-03     34.8775E-03
             242             860     32.7747E-03     34.8775E-03
             257             860     32.7747E-03     34.8775E-03
             258             860     32.7747E-03     34.8775E-03
             258             861     37.8574E-03     40.4682E-03
             259             861     37.8574E-03     40.4682E-03
             242             861     37.8574E-03     40.4682E-03
             243             861     37.8574E-03     40.4682E-03
             244             862     46.5929E-03     47.5814E-03
             260             862     46.5929E-03     47.5814E-03
             243             862     46.5929E-03     47.5814E-03
             259             862     46.5929E-03     47.5814E-03
             260             863     56.4631E-03     56.7860E-03
             261             863     56.4631E-03     56.7860E-03
             244             863     56.4631E-03     56.7860E-03
             245             863     56.4631E-03     56.7860E-03
             262             864     66.8693E-03     67.0031E-03
             245             864     66.8693E-03     67.0031E-03
             261             864     66.8693E-03     67.0031E-03
             246             864     66.8693E-03     67.0031E-03
             246             865     77.6720E-03     77.7609E-03
             262             865     77.6720E-03     77.7609E-03
             247             865     77.6720E-03     77.7609E-03
             263             865     77.6720E-03     77.7609E-03
             264             866     88.7500E-03     88.8417E-03
             263             866     88.7500E-03     88.8417E-03
             248             866     88.7500E-03     88.8417E-03
             247             866     88.7500E-03     88.8417E-03
             265             867     100.027E-03     100.135E-03
             264             867     100.027E-03     100.135E-03
             249             867     100.027E-03     100.135E-03
             248             867     100.027E-03     100.135E-03
             249             868     111.484E-03     111.583E-03
             266             868     111.484E-03     111.583E-03
             265             868     111.484E-03     111.583E-03
             250             868     111.484E-03     111.583E-03
             251             869     122.970E-03     123.132E-03
             250             869     122.970E-03     123.132E-03
             266             869     122.970E-03     123.132E-03
             267             869     122.970E-03     123.132E-03
             268             870     134.455E-03     134.652E-03
             267             870     134.455E-03     134.652E-03
             251             870     134.455E-03     134.652E-03
             252             870     134.455E-03     134.652E-03
             269             871     145.351E-03     145.840E-03
             253             871     145.351E-03     145.840E-03
             268             871     145.351E-03     145.840E-03
             252             871     145.351E-03     145.840E-03
             253             872     154.631E-03     155.828E-03
             254             872     154.631E-03     155.828E-03
             270             872     154.631E-03     155.828E-03
             269             872     154.631E-03     155.828E-03
             271             873     160.625E-03     162.675E-03
             255             873     160.625E-03     162.675E-03
             270             873     160.625E-03     162.675E-03
             254             873     160.625E-03     162.675E-03
             271             874     164.382E-03     166.722E-03
             255             874     164.382E-03     166.722E-03
             272             874     164.382E-03     166.722E-03
             256             874     164.382E-03     166.722E-03
             273             875     26.8664E-03     27.3095E-03
             258             875     26.8664E-03     27.3095E-03
             274             875     26.8664E-03     27.3095E-03
             257             875     26.8664E-03     27.3095E-03
             258             876     32.9307E-03     35.5297E-03
             259             876     32.9307E-03     35.5297E-03
             275             876     32.9307E-03     35.5297E-03
             274             876     32.9307E-03     35.5297E-03
             275             877     41.9630E-03     44.7314E-03
             260             877     41.9630E-03     44.7314E-03
             259             877     41.9630E-03     44.7314E-03
             276             877     41.9630E-03     44.7314E-03
             276             878     52.5965E-03     54.8224E-03
             260             878     52.5965E-03     54.8224E-03
             261             878     52.5965E-03     54.8224E-03
             277             878     52.5965E-03     54.8224E-03
             262             879     63.7132E-03     65.8076E-03
             261             879     63.7132E-03     65.8076E-03
             278             879     63.7132E-03     65.8076E-03
             277             879     63.7132E-03     65.8076E-03
             263             880     75.1173E-03     77.2031E-03
             279             880     75.1173E-03     77.2031E-03
             262             880     75.1173E-03     77.2031E-03
             278             880     75.1173E-03     77.2031E-03
             263             881     86.7592E-03     88.8841E-03
             280             881     86.7592E-03     88.8841E-03
             279             881     86.7592E-03     88.8841E-03
             264             881     86.7592E-03     88.8841E-03
             280             882     98.5907E-03     100.787E-03
             281             882     98.5907E-03     100.787E-03
             264             882     98.5907E-03     100.787E-03
             265             882     98.5907E-03     100.787E-03
             265             883     110.593E-03     112.896E-03
             282             883     110.593E-03     112.896E-03
             266             883     110.593E-03     112.896E-03
             281             883     110.593E-03     112.896E-03
             266             884     122.797E-03     125.269E-03
             282             884     122.797E-03     125.269E-03
             267             884     122.797E-03     125.269E-03
             283             884     122.797E-03     125.269E-03
             267             885     135.027E-03     137.839E-03
             268             885     135.027E-03     137.839E-03
             283             885     135.027E-03     137.839E-03
             284             885     135.027E-03     137.839E-03
             268             886     147.447E-03     150.661E-03
             285             886     147.447E-03     150.661E-03
             269             886     147.447E-03     150.661E-03
             284             886     147.447E-03     150.661E-03
             286             887     159.051E-03     163.020E-03
             270             887     159.051E-03     163.020E-03
             269             887     159.051E-03     163.020E-03
             285             887     159.051E-03     163.020E-03
             286             888     168.779E-03     173.516E-03
             287             888     168.779E-03     173.516E-03
             271             888     168.779E-03     173.516E-03
             270             888     168.779E-03     173.516E-03
             287             889     178.639E-03     181.852E-03
             288             889     178.639E-03     181.852E-03
             271             889     178.639E-03     181.852E-03
             272             889     178.639E-03     181.852E-03
             289             890     20.8039E-03     22.0873E-03
             290             890     20.8039E-03     22.0873E-03
             273             890     20.8039E-03     22.0873E-03
             274             890     20.8039E-03     22.0873E-03
             291             891     28.0981E-03     31.3985E-03
             275             891     28.0981E-03     31.3985E-03
             274             891     28.0981E-03     31.3985E-03
             290             891     28.0981E-03     31.3985E-03
             291             892     38.1058E-03     42.2244E-03
             275             892     38.1058E-03     42.2244E-03
             292             892     38.1058E-03     42.2244E-03
             276             892     38.1058E-03     42.2244E-03
             292             893     49.1761E-03     53.3953E-03
             277             893     49.1761E-03     53.3953E-03
             293             893     49.1761E-03     53.3953E-03
             276             893     49.1761E-03     53.3953E-03
             293             894     60.7444E-03     64.9171E-03
             277             894     60.7444E-03     64.9171E-03
             294             894     60.7444E-03     64.9171E-03
             278             894     60.7444E-03     64.9171E-03
             279             895     72.5183E-03     76.7180E-03
             294             895     72.5183E-03     76.7180E-03
             278             895     72.5183E-03     76.7180E-03
             295             895     72.5183E-03     76.7180E-03
             280             896     84.4280E-03     88.6815E-03
             279             896     84.4280E-03     88.6815E-03
             295             896     84.4280E-03     88.6815E-03
             296             896     84.4280E-03     88.6815E-03
             281             897     96.4783E-03     100.798E-03
             280             897     96.4783E-03     100.798E-03
             296             897     96.4783E-03     100.798E-03
             297             897     96.4783E-03     100.798E-03
             282             898     108.645E-03     113.096E-03
             297             898     108.645E-03     113.096E-03
             281             898     108.645E-03     113.096E-03
             298             898     108.645E-03     113.096E-03
             282             899     120.972E-03     125.602E-03
             283             899     120.972E-03     125.602E-03
             298             899     120.972E-03     125.602E-03
             299             899     120.972E-03     125.602E-03
             283             900     133.565E-03     138.541E-03
             299             900     133.565E-03     138.541E-03
             284             900     133.565E-03     138.541E-03
             300             900     133.565E-03     138.541E-03
             284             901     146.445E-03     151.881E-03
             285             901     146.445E-03     151.881E-03
             301             901     146.445E-03     151.881E-03
             300             901     146.445E-03     151.881E-03
             286             902     160.809E-03     166.253E-03
             302             902     160.809E-03     166.253E-03
             285             902     160.809E-03     166.253E-03
             301             902     160.809E-03     166.253E-03
             287             903     176.151E-03     181.104E-03
             302             903     176.151E-03     181.104E-03
             303             903     176.151E-03     181.104E-03
             286             903     176.151E-03     181.104E-03
             287             904     190.567E-03     195.156E-03
             288             904     190.567E-03     195.156E-03
             304             904     190.567E-03     195.156E-03
             303             904     190.567E-03     195.156E-03
             305             905     15.0362E-03     17.7912E-03
             290             905     15.0362E-03     17.7912E-03
             306             905     15.0362E-03     17.7912E-03
             289             905     15.0362E-03     17.7912E-03
             306             906     23.8916E-03     28.8718E-03
             307             906     23.8916E-03     28.8718E-03
             290             906     23.8916E-03     28.8718E-03
             291             906     23.8916E-03     28.8718E-03
             292             907     34.7443E-03     40.5369E-03
             291             907     34.7443E-03     40.5369E-03
             308             907     34.7443E-03     40.5369E-03
             307             907     34.7443E-03     40.5369E-03
             308             908     46.1935E-03     52.4547E-03
             309             908     46.1935E-03     52.4547E-03
             293             908     46.1935E-03     52.4547E-03
             292             908     46.1935E-03     52.4547E-03
             294             909     57.9536E-03     64.3150E-03
             310             909     57.9536E-03     64.3150E-03
             309             909     57.9536E-03     64.3150E-03
             293             909     57.9536E-03     64.3150E-03
             311             910     69.8292E-03     76.2397E-03
             295             910     69.8292E-03     76.2397E-03
             294             910     69.8292E-03     76.2397E-03
             310             910     69.8292E-03     76.2397E-03
             296             911     81.7705E-03     88.2129E-03
             312             911     81.7705E-03     88.2129E-03
             311             911     81.7705E-03     88.2129E-03
             295             911     81.7705E-03     88.2129E-03
             296             912     93.7395E-03     100.214E-03
             312             912     93.7395E-03     100.214E-03
             313             912     93.7395E-03     100.214E-03
             297             912     93.7395E-03     100.214E-03
             297             913     105.780E-03     112.277E-03
             314             913     105.780E-03     112.277E-03
             298             913     105.780E-03     112.277E-03
             313             913     105.780E-03     112.277E-03
             314             914     117.878E-03     124.486E-03
             298             914     117.878E-03     124.486E-03
             299             914     117.878E-03     124.486E-03
             315             914     117.878E-03     124.486E-03
             299             915     130.296E-03     136.998E-03
             315             915     130.296E-03     136.998E-03
             316             915     130.296E-03     136.998E-03
             300             915     130.296E-03     136.998E-03
             316             916     143.362E-03     150.297E-03
             317             916     143.362E-03     150.297E-03
             301             916     143.362E-03     150.297E-03
             300             916     143.362E-03     150.297E-03
             302             917     158.186E-03     165.110E-03
             301             917     158.186E-03     165.110E-03
             317             917     158.186E-03     165.110E-03
             318             917     158.186E-03     165.110E-03
             302             918     178.721E-03     184.093E-03
             318             918     178.721E-03     184.093E-03
             303             918     178.721E-03     184.093E-03
             319             918     178.721E-03     184.093E-03
             320             919     202.023E-03     204.507E-03
             303             919     202.023E-03     204.507E-03
             319             919     202.023E-03     204.507E-03
             304             919     202.023E-03     204.507E-03
             306             920     10.5467E-03     15.6709E-03
             322             920     10.5467E-03     15.6709E-03
             305             920     10.5467E-03     15.6709E-03
             321             920     10.5467E-03     15.6709E-03
             307             921     20.9037E-03     27.8842E-03
             323             921     20.9037E-03     27.8842E-03
             322             921     20.9037E-03     27.8842E-03
             306             921     20.9037E-03     27.8842E-03
             324             922     32.1134E-03     40.1711E-03
             323             922     32.1134E-03     40.1711E-03
             307             922     32.1134E-03     40.1711E-03
             308             922     32.1134E-03     40.1711E-03
             308             923     43.7402E-03     52.1878E-03
             325             923     43.7402E-03     52.1878E-03
             309             923     43.7402E-03     52.1878E-03
             324             923     43.7402E-03     52.1878E-03
             310             924     55.4475E-03     64.1172E-03
             325             924     55.4475E-03     64.1172E-03
             326             924     55.4475E-03     64.1172E-03
             309             924     55.4475E-03     64.1172E-03
             326             925     67.2112E-03     75.9242E-03
             311             925     67.2112E-03     75.9242E-03
             310             925     67.2112E-03     75.9242E-03
             327             925     67.2112E-03     75.9242E-03
             311             926     78.9598E-03     87.6570E-03
             327             926     78.9598E-03     87.6570E-03
             328             926     78.9598E-03     87.6570E-03
             312             926     78.9598E-03     87.6570E-03
             312             927     90.6761E-03     99.3286E-03
             328             927     90.6761E-03     99.3286E-03
             329             927     90.6761E-03     99.3286E-03
             313             927     90.6761E-03     99.3286E-03
             329             928     102.346E-03     110.921E-03
             330             928     102.346E-03     110.921E-03
             313             928     102.346E-03     110.921E-03
             314             928     102.346E-03     110.921E-03
             314             929     114.115E-03     122.544E-03
             330             929     114.115E-03     122.544E-03
             315             929     114.115E-03     122.544E-03
             331             929     114.115E-03     122.544E-03
             316             930     126.055E-03     134.295E-03
             315             930     126.055E-03     134.295E-03
             331             930     126.055E-03     134.295E-03
             332             930     126.055E-03     134.295E-03
             332             931     138.955E-03     146.870E-03
             316             931     138.955E-03     146.870E-03
             333             931     138.955E-03     146.870E-03
             317             931     138.955E-03     146.870E-03
             317             932     153.412E-03     161.029E-03
             333             932     153.412E-03     161.029E-03
             334             932     153.412E-03     161.029E-03
             318             932     153.412E-03     161.029E-03
             318             933     173.102E-03     180.600E-03
             334             933     173.102E-03     180.600E-03
             335             933     173.102E-03     180.600E-03
             319             933     173.102E-03     180.600E-03
             319             934     204.915E-03     210.601E-03
             335             934     204.915E-03     210.601E-03
             320             934     204.915E-03     210.601E-03
             336             934     204.915E-03     210.601E-03
             338             935     29.2008E-03     34.8971E-03
             337             935     29.2008E-03     34.8971E-03
             321             935     29.2008E-03     34.8971E-03
             322             935     29.2008E-03     34.8971E-03
             338             936     39.7460E-03     43.5683E-03
             339             936     39.7460E-03     43.5683E-03
             323             936     39.7460E-03     43.5683E-03
             322             936     39.7460E-03     43.5683E-03
             324             937     50.7284E-03     54.6550E-03
             340             937     50.7284E-03     54.6550E-03
             339             937     50.7284E-03     54.6550E-03
             323             937     50.7284E-03     54.6550E-03
             340             938     62.6056E-03     66.8063E-03
             324             938     62.6056E-03     66.8063E-03
             325             938     62.6056E-03     66.8063E-03
             341             938     62.6056E-03     66.8063E-03
             325             939     75.0929E-03     79.3632E-03
             326             939     75.0929E-03     79.3632E-03
             341             939     75.0929E-03     79.3632E-03
             342             939     75.0929E-03     79.3632E-03
             342             940     87.8856E-03     92.1445E-03
             343             940     87.8856E-03     92.1445E-03
             326             940     87.8856E-03     92.1445E-03
             327             940     87.8856E-03     92.1445E-03
             343             941     100.833E-03     105.011E-03
             328             941     100.833E-03     105.011E-03
             327             941     100.833E-03     105.011E-03
             344             941     100.833E-03     105.011E-03
             329             942     113.757E-03     117.840E-03
             345             942     113.757E-03     117.840E-03
             344             942     113.757E-03     117.840E-03
             328             942     113.757E-03     117.840E-03
             346             943     126.650E-03     130.518E-03
             329             943     126.650E-03     130.518E-03
             330             943     126.650E-03     130.518E-03
             345             943     126.650E-03     130.518E-03
             347             944     139.341E-03     142.971E-03
             330             944     139.341E-03     142.971E-03
             346             944     139.341E-03     142.971E-03
             331             944     139.341E-03     142.971E-03
             332             945     151.967E-03     155.000E-03
             347             945     151.967E-03     155.000E-03
             331             945     151.967E-03     155.000E-03
             348             945     151.967E-03     155.000E-03
             333             946     164.341E-03     166.708E-03
             348             946     164.341E-03     166.708E-03
             332             946     164.341E-03     166.708E-03
             349             946     164.341E-03     166.708E-03
             334             947     176.976E-03     178.302E-03
             350             947     176.976E-03     178.302E-03
             349             947     176.976E-03     178.302E-03
             333             947     176.976E-03     178.302E-03
             351             948     189.765E-03     190.432E-03
             350             948     189.765E-03     190.432E-03
             335             948     189.765E-03     190.432E-03
             334             948     189.765E-03     190.432E-03
             352             949     206.547E-03     209.959E-03
             335             949     206.547E-03     209.959E-03
             351             949     206.547E-03     209.959E-03
             336             949     206.547E-03     209.959E-03
             337             950     45.8251E-03     51.4012E-03
             353             950     45.8251E-03     51.4012E-03
             338             950     45.8251E-03     51.4012E-03
             354             950     45.8251E-03     51.4012E-03
             339             951     54.9528E-03     56.4537E-03
             338             951     54.9528E-03     56.4537E-03
             354             951     54.9528E-03     56.4537E-03
             355             951     54.9528E-03     56.4537E-03
             339             952     66.7017E-03     66.6130E-03
             340             952     66.7017E-03     66.6130E-03
             356             952     66.7017E-03     66.6130E-03
             355             952     66.7017E-03     66.6130E-03
             340             953     79.8005E-03     79.3947E-03
             357             953     79.8005E-03     79.3947E-03
             341             953     79.8005E-03     79.3947E-03
             356             953     79.8005E-03     79.3947E-03
             341             954     93.7481E-03     93.2945E-03
             358             954     93.7481E-03     93.2945E-03
             357             954     93.7481E-03     93.2945E-03
             342             954     93.7481E-03     93.2945E-03
             359             955     108.303E-03     107.788E-03
             358             955     108.303E-03     107.788E-03
             342             955     108.303E-03     107.788E-03
             343             955     108.303E-03     107.788E-03
             344             956     123.136E-03     122.589E-03
             343             956     123.136E-03     122.589E-03
             360             956     123.136E-03     122.589E-03
             359             956     123.136E-03     122.589E-03
             360             957     138.151E-03     137.496E-03
             344             957     138.151E-03     137.496E-03
             361             957     138.151E-03     137.496E-03
             345             957     138.151E-03     137.496E-03
             362             958     153.128E-03     152.382E-03
             345             958     153.128E-03     152.382E-03
             346             958     153.128E-03     152.382E-03
             361             958     153.128E-03     152.382E-03
             347             959     168.017E-03     167.002E-03
             363             959     168.017E-03     167.002E-03
             362             959     168.017E-03     167.002E-03
             346             959     168.017E-03     167.002E-03
             347             960     182.471E-03     181.173E-03
             363             960     182.471E-03     181.173E-03
             348             960     182.471E-03     181.173E-03
             364             960     182.471E-03     181.173E-03
             348             961     196.044E-03     194.312E-03
             364             961     196.044E-03     194.312E-03
             349             961     196.044E-03     194.312E-03
             365             961     196.044E-03     194.312E-03
             365             962     208.048E-03     205.759E-03
             349             962     208.048E-03     205.759E-03
             366             962     208.048E-03     205.759E-03
             350             962     208.048E-03     205.759E-03
             350             963     216.702E-03     214.559E-03
             351             963     216.702E-03     214.559E-03
             367             963     216.702E-03     214.559E-03
             366             963     216.702E-03     214.559E-03
             367             964     220.762E-03     217.923E-03
             368             964     220.762E-03     217.923E-03
             352             964     220.762E-03     217.923E-03
             351             964     220.762E-03     217.923E-03
             353             965     38.1755E-03     42.0037E-03
             369             965     38.1755E-03     42.0037E-03
             370             965     38.1755E-03     42.0037E-03
             354             965     38.1755E-03     42.0037E-03
             370             966     46.6655E-03     50.9583E-03
             355             966     46.6655E-03     50.9583E-03
             354             966     46.6655E-03     50.9583E-03
             371             966     46.6655E-03     50.9583E-03
             356             967     60.0140E-03     62.2543E-03
             355             967     60.0140E-03     62.2543E-03
             371             967     60.0140E-03     62.2543E-03
             372             967     60.0140E-03     62.2543E-03
             356             968     74.6193E-03     76.1716E-03
             373             968     74.6193E-03     76.1716E-03
             372             968     74.6193E-03     76.1716E-03
             357             968     74.6193E-03     76.1716E-03
             373             969     89.8224E-03     91.1795E-03
             357             969     89.8224E-03     91.1795E-03
             358             969     89.8224E-03     91.1795E-03
             374             969     89.8224E-03     91.1795E-03
             358             970     105.429E-03     106.769E-03
             359             970     105.429E-03     106.769E-03
             375             970     105.429E-03     106.769E-03
             374             970     105.429E-03     106.769E-03
             375             971     121.315E-03     122.682E-03
             359             971     121.315E-03     122.682E-03
             376             971     121.315E-03     122.682E-03
             360             971     121.315E-03     122.682E-03
             361             972     137.402E-03     138.807E-03
             376             972     137.402E-03     138.807E-03
             377             972     137.402E-03     138.807E-03
             360             972     137.402E-03     138.807E-03
             361             973     153.685E-03     155.093E-03
             377             973     153.685E-03     155.093E-03
             362             973     153.685E-03     155.093E-03
             378             973     153.685E-03     155.093E-03
             362             974     170.001E-03     171.516E-03
             363             974     170.001E-03     171.516E-03
             379             974     170.001E-03     171.516E-03
             378             974     170.001E-03     171.516E-03
             379             975     186.375E-03     187.959E-03
             363             975     186.375E-03     187.959E-03
             380             975     186.375E-03     187.959E-03
             364             975     186.375E-03     187.959E-03
             365             976     202.238E-03     204.214E-03
             364             976     202.238E-03     204.214E-03
             380             976     202.238E-03     204.214E-03
             381             976     202.238E-03     204.214E-03
             382             977     216.583E-03     219.419E-03
             365             977     216.583E-03     219.419E-03
             366             977     216.583E-03     219.419E-03
             381             977     216.583E-03     219.419E-03
             383             978     228.226E-03     231.777E-03
             367             978     228.226E-03     231.777E-03
             366             978     228.226E-03     231.777E-03
             382             978     228.226E-03     231.777E-03
             367             979     237.046E-03     240.450E-03
             368             979     237.046E-03     240.450E-03
             383             979     237.046E-03     240.450E-03
             384             979     237.046E-03     240.450E-03
             370             980     30.1208E-03     32.2837E-03
             369             980     30.1208E-03     32.2837E-03
             386             980     30.1208E-03     32.2837E-03
             385             980     30.1208E-03     32.2837E-03
             387             981     40.3597E-03     45.0681E-03
             371             981     40.3597E-03     45.0681E-03
             386             981     40.3597E-03     45.0681E-03
             370             981     40.3597E-03     45.0681E-03
             387             982     54.4850E-03     58.9702E-03
             372             982     54.4850E-03     58.9702E-03
             371             982     54.4850E-03     58.9702E-03
             388             982     54.4850E-03     58.9702E-03
             372             983     70.2791E-03     73.8910E-03
             388             983     70.2791E-03     73.8910E-03
             389             983     70.2791E-03     73.8910E-03
             373             983     70.2791E-03     73.8910E-03
             389             984     86.4198E-03     89.8271E-03
             374             984     86.4198E-03     89.8271E-03
             390             984     86.4198E-03     89.8271E-03
             373             984     86.4198E-03     89.8271E-03
             374             985     102.791E-03     106.177E-03
             390             985     102.791E-03     106.177E-03
             391             985     102.791E-03     106.177E-03
             375             985     102.791E-03     106.177E-03
             391             986     119.379E-03     122.814E-03
             392             986     119.379E-03     122.814E-03
             375             986     119.379E-03     122.814E-03
             376             986     119.379E-03     122.814E-03
             392             987     136.155E-03     139.684E-03
             393             987     136.155E-03     139.684E-03
             377             987     136.155E-03     139.684E-03
             376             987     136.155E-03     139.684E-03
             378             988     153.114E-03     156.795E-03
             393             988     153.114E-03     156.795E-03
             394             988     153.114E-03     156.795E-03
             377             988     153.114E-03     156.795E-03
             394             989     170.314E-03     174.233E-03
             378             989     170.314E-03     174.233E-03
             395             989     170.314E-03     174.233E-03
             379             989     170.314E-03     174.233E-03
             395             990     187.604E-03     191.997E-03
             396             990     187.604E-03     191.997E-03
             380             990     187.604E-03     191.997E-03
             379             990     187.604E-03     191.997E-03
             380             991     205.228E-03     210.192E-03
             396             991     205.228E-03     210.192E-03
             381             991     205.228E-03     210.192E-03
             397             991     205.228E-03     210.192E-03
             382             992     222.361E-03     228.193E-03
             381             992     222.361E-03     228.193E-03
             397             992     222.361E-03     228.193E-03
             398             992     222.361E-03     228.193E-03
             383             993     237.556E-03     244.201E-03
             382             993     237.556E-03     244.201E-03
             399             993     237.556E-03     244.201E-03
             398             993     237.556E-03     244.201E-03
             384             994     251.910E-03     256.743E-03
             400             994     251.910E-03     256.743E-03
             399             994     251.910E-03     256.743E-03
             383             994     251.910E-03     256.743E-03
             401             995     22.2944E-03     26.0409E-03
             386             995     22.2944E-03     26.0409E-03
             385             995     22.2944E-03     26.0409E-03
             402             995     22.2944E-03     26.0409E-03
             386             996     34.7839E-03     40.5181E-03
             403             996     34.7839E-03     40.5181E-03
             402             996     34.7839E-03     40.5181E-03
             387             996     34.7839E-03     40.5181E-03
             388             997     50.3600E-03     56.3068E-03
             387             997     50.3600E-03     56.3068E-03
             404             997     50.3600E-03     56.3068E-03
             403             997     50.3600E-03     56.3068E-03
             388             998     66.7182E-03     72.4103E-03
             404             998     66.7182E-03     72.4103E-03
             405             998     66.7182E-03     72.4103E-03
             389             998     66.7182E-03     72.4103E-03
             390             999     83.3715E-03     88.9141E-03
             406             999     83.3715E-03     88.9141E-03
             389             999     83.3715E-03     88.9141E-03
             405             999     83.3715E-03     88.9141E-03
             406            1000     100.143E-03     105.683E-03
             391            1000     100.143E-03     105.683E-03
             390            1000     100.143E-03     105.683E-03
             407            1000     100.143E-03     105.683E-03
             408            1001     117.015E-03     122.609E-03
             392            1001     117.015E-03     122.609E-03
             407            1001     117.015E-03     122.609E-03
             391            1001     117.015E-03     122.609E-03
             408            1002     134.020E-03     139.695E-03
             392            1002     134.020E-03     139.695E-03
             393            1002     134.020E-03     139.695E-03
             409            1002     134.020E-03     139.695E-03
             394            1003     151.149E-03     156.996E-03
             393            1003     151.149E-03     156.996E-03
             409            1003     151.149E-03     156.996E-03
             410            1003     151.149E-03     156.996E-03
             395            1004     168.475E-03     174.568E-03
             410            1004     168.475E-03     174.568E-03
             411            1004     168.475E-03     174.568E-03
             394            1004     168.475E-03     174.568E-03
             395            1005     186.132E-03     192.703E-03
             412            1005     186.132E-03     192.703E-03
             396            1005     186.132E-03     192.703E-03
             411            1005     186.132E-03     192.703E-03
             397            1006     204.222E-03     211.418E-03
             413            1006     204.222E-03     211.418E-03
             412            1006     204.222E-03     211.418E-03
             396            1006     204.222E-03     211.418E-03
             397            1007     224.122E-03     231.434E-03
             413            1007     224.122E-03     231.434E-03
             414            1007     224.122E-03     231.434E-03
             398            1007     224.122E-03     231.434E-03
             415            1008     244.933E-03     251.794E-03
             398            1008     244.933E-03     251.794E-03
             399            1008     244.933E-03     251.794E-03
             414            1008     244.933E-03     251.794E-03
             399            1009     263.866E-03     270.076E-03
             416            1009     263.866E-03     270.076E-03
             400            1009     263.866E-03     270.076E-03
             415            1009     263.866E-03     270.076E-03
             402            1010     15.7031E-03     22.3742E-03
             401            1010     15.7031E-03     22.3742E-03
             417            1010     15.7031E-03     22.3742E-03
             418            1010     15.7031E-03     22.3742E-03
             418            1011     31.0499E-03     38.2624E-03
             402            1011     31.0499E-03     38.2624E-03
             403            1011     31.0499E-03     38.2624E-03
             419            1011     31.0499E-03     38.2624E-03
             420            1012     47.4437E-03     54.7976E-03
             419            1012     47.4437E-03     54.7976E-03
             403            1012     47.4437E-03     54.7976E-03
             404            1012     47.4437E-03     54.7976E-03
             404            1013     63.9620E-03     71.6829E-03
             405            1013     63.9620E-03     71.6829E-03
             421            1013     63.9620E-03     71.6829E-03
             420            1013     63.9620E-03     71.6829E-03
             406            1014     80.6810E-03     88.4242E-03
             421            1014     80.6810E-03     88.4242E-03
             422            1014     80.6810E-03     88.4242E-03
             405            1014     80.6810E-03     88.4242E-03
             422            1015     97.4448E-03     105.220E-03
             423            1015     97.4448E-03     105.220E-03
             407            1015     97.4448E-03     105.220E-03
             406            1015     97.4448E-03     105.220E-03
             408            1016     114.241E-03     122.044E-03
             407            1016     114.241E-03     122.044E-03
             424            1016     114.241E-03     122.044E-03
             423            1016     114.241E-03     122.044E-03
             425            1017     131.048E-03     138.887E-03
             409            1017     131.048E-03     138.887E-03
             408            1017     131.048E-03     138.887E-03
             424            1017     131.048E-03     138.887E-03
             409            1018     147.933E-03     155.793E-03
             410            1018     147.933E-03     155.793E-03
             425            1018     147.933E-03     155.793E-03
             426            1018     147.933E-03     155.793E-03
             411            1019     164.874E-03     172.878E-03
             426            1019     164.874E-03     172.878E-03
             427            1019     164.874E-03     172.878E-03
             410            1019     164.874E-03     172.878E-03
             411            1020     182.193E-03     190.317E-03
             427            1020     182.193E-03     190.317E-03
             428            1020     182.193E-03     190.317E-03
             412            1020     182.193E-03     190.317E-03
             428            1021     200.239E-03     208.688E-03
             429            1021     200.239E-03     208.688E-03
             413            1021     200.239E-03     208.688E-03
             412            1021     200.239E-03     208.688E-03
             413            1022     220.145E-03     228.722E-03
             429            1022     220.145E-03     228.722E-03
             414            1022     220.145E-03     228.722E-03
             430            1022     220.145E-03     228.722E-03
             415            1023     246.333E-03     253.210E-03
             414            1023     246.333E-03     253.210E-03
             430            1023     246.333E-03     253.210E-03
             431            1023     246.333E-03     253.210E-03
             416            1024     274.785E-03     278.317E-03
             415            1024     274.785E-03     278.317E-03
             432            1024     274.785E-03     278.317E-03
             431            1024     274.785E-03     278.317E-03
             418            1025     14.5999E-03     22.2165E-03
             433            1025     14.5999E-03     22.2165E-03
             434            1025     14.5999E-03     22.2165E-03
             417            1025     14.5999E-03     22.2165E-03
             419            1026     30.1525E-03     38.2344E-03
             434            1026     30.1525E-03     38.2344E-03
             435            1026     30.1525E-03     38.2344E-03
             418            1026     30.1525E-03     38.2344E-03
             419            1027     45.9070E-03     55.2101E-03
             420            1027     45.9070E-03     55.2101E-03
             435            1027     45.9070E-03     55.2101E-03
             436            1027     45.9070E-03     55.2101E-03
             437            1028     62.1661E-03     71.9341E-03
             420            1028     62.1661E-03     71.9341E-03
             421            1028     62.1661E-03     71.9341E-03
             436            1028     62.1661E-03     71.9341E-03
             437            1029     78.5138E-03     88.5543E-03
             422            1029     78.5138E-03     88.5543E-03
             438            1029     78.5138E-03     88.5543E-03
             421            1029     78.5138E-03     88.5543E-03
             422            1030     94.9281E-03     105.018E-03
             438            1030     94.9281E-03     105.018E-03
             423            1030     94.9281E-03     105.018E-03
             439            1030     94.9281E-03     105.018E-03
             423            1031     111.309E-03     121.383E-03
             440            1031     111.309E-03     121.383E-03
             439            1031     111.309E-03     121.383E-03
             424            1031     111.309E-03     121.383E-03
             425            1032     127.642E-03     137.652E-03
             440            1032     127.642E-03     137.652E-03
             424            1032     127.642E-03     137.652E-03
             441            1032     127.642E-03     137.652E-03
             441            1033     143.895E-03     153.804E-03
             426            1033     143.895E-03     153.804E-03
             425            1033     143.895E-03     153.804E-03
             442            1033     143.895E-03     153.804E-03
             427            1034     160.243E-03     169.941E-03
             426            1034     160.243E-03     169.941E-03
             443            1034     160.243E-03     169.941E-03
             442            1034     160.243E-03     169.941E-03
             428            1035     176.734E-03     186.164E-03
             443            1035     176.734E-03     186.164E-03
             444            1035     176.734E-03     186.164E-03
             427            1035     176.734E-03     186.164E-03
             429            1036     194.220E-03     203.202E-03
             444            1036     194.220E-03     203.202E-03
             445            1036     194.220E-03     203.202E-03
             428            1036     194.220E-03     203.202E-03
             445            1037     213.298E-03     221.839E-03
             446            1037     213.298E-03     221.839E-03
             430            1037     213.298E-03     221.839E-03
             429            1037     213.298E-03     221.839E-03
             430            1038     237.921E-03     246.331E-03
             446            1038     237.921E-03     246.331E-03
             431            1038     237.921E-03     246.331E-03
             447            1038     237.921E-03     246.331E-03
             431            1039     275.543E-03     281.697E-03
             448            1039     275.543E-03     281.697E-03
             447            1039     275.543E-03     281.697E-03
             432            1039     275.543E-03     281.697E-03
             434            1040     34.6875E-03     40.4500E-03
             449            1040     34.6875E-03     40.4500E-03
             450            1040     34.6875E-03     40.4500E-03
             433            1040     34.6875E-03     40.4500E-03
             435            1041     48.5107E-03     52.7144E-03
             450            1041     48.5107E-03     52.7144E-03
             451            1041     48.5107E-03     52.7144E-03
             434            1041     48.5107E-03     52.7144E-03
             436            1042     63.6093E-03     68.2677E-03
             451            1042     63.6093E-03     68.2677E-03
             452            1042     63.6093E-03     68.2677E-03
             435            1042     63.6093E-03     68.2677E-03
             436            1043     79.9955E-03     85.0974E-03
             452            1043     79.9955E-03     85.0974E-03
             453            1043     79.9955E-03     85.0974E-03
             437            1043     79.9955E-03     85.0974E-03
             453            1044     97.1021E-03     102.299E-03
             454            1044     97.1021E-03     102.299E-03
             437            1044     97.1021E-03     102.299E-03
             438            1044     97.1021E-03     102.299E-03
             454            1045     114.540E-03     119.752E-03
             455            1045     114.540E-03     119.752E-03
             438            1045     114.540E-03     119.752E-03
             439            1045     114.540E-03     119.752E-03
             456            1046     132.113E-03     137.231E-03
             440            1046     132.113E-03     137.231E-03
             439            1046     132.113E-03     137.231E-03
             455            1046     132.113E-03     137.231E-03
             456            1047     149.633E-03     154.709E-03
             441            1047     149.633E-03     154.709E-03
             457            1047     149.633E-03     154.709E-03
             440            1047     149.633E-03     154.709E-03
             458            1048     167.093E-03     171.967E-03
             441            1048     167.093E-03     171.967E-03
             457            1048     167.093E-03     171.967E-03
             442            1048     167.093E-03     171.967E-03
             443            1049     184.345E-03     189.005E-03
             458            1049     184.345E-03     189.005E-03
             459            1049     184.345E-03     189.005E-03
             442            1049     184.345E-03     189.005E-03
             460            1050     201.593E-03     205.651E-03
             443            1050     201.593E-03     205.651E-03
             444            1050     201.593E-03     205.651E-03
             459            1050     201.593E-03     205.651E-03
             461            1051     218.488E-03     221.809E-03
             444            1051     218.488E-03     221.809E-03
             460            1051     218.488E-03     221.809E-03
             445            1051     218.488E-03     221.809E-03
             445            1052     235.891E-03     237.893E-03
             446            1052     235.891E-03     237.893E-03
             461            1052     235.891E-03     237.893E-03
             462            1052     235.891E-03     237.893E-03
             447            1053     253.061E-03     254.365E-03
             462            1053     253.061E-03     254.365E-03
             463            1053     253.061E-03     254.365E-03
             446            1053     253.061E-03     254.365E-03
             463            1054     275.120E-03     279.933E-03
             464            1054     275.120E-03     279.933E-03
             447            1054     275.120E-03     279.933E-03
             448            1054     275.120E-03     279.933E-03
             465            1055     48.0675E-03     54.2185E-03
             466            1055     48.0675E-03     54.2185E-03
             449            1055     48.0675E-03     54.2185E-03
             450            1055     48.0675E-03     54.2185E-03
             450            1056     61.0811E-03     62.8553E-03
             466            1056     61.0811E-03     62.8553E-03
             467            1056     61.0811E-03     62.8553E-03
             451            1056     61.0811E-03     62.8553E-03
             451            1057     77.3598E-03     77.9224E-03
             468            1057     77.3598E-03     77.9224E-03
             452            1057     77.3598E-03     77.9224E-03
             467            1057     77.3598E-03     77.9224E-03
             468            1058     95.2254E-03     95.6319E-03
             452            1058     95.2254E-03     95.6319E-03
             453            1058     95.2254E-03     95.6319E-03
             469            1058     95.2254E-03     95.6319E-03
             470            1059     114.004E-03     114.362E-03
             453            1059     114.004E-03     114.362E-03
             454            1059     114.004E-03     114.362E-03
             469            1059     114.004E-03     114.362E-03
             470            1060     133.323E-03     133.681E-03
             454            1060     133.323E-03     133.681E-03
             455            1060     133.323E-03     133.681E-03
             471            1060     133.323E-03     133.681E-03
             455            1061     152.919E-03     153.243E-03
             456            1061     152.919E-03     153.243E-03
             472            1061     152.919E-03     153.243E-03
             471            1061     152.919E-03     153.243E-03
             457            1062     172.607E-03     172.931E-03
             473            1062     172.607E-03     172.931E-03
             456            1062     172.607E-03     172.931E-03
             472            1062     172.607E-03     172.931E-03
             458            1063     192.344E-03     192.575E-03
             474            1063     192.344E-03     192.575E-03
             457            1063     192.344E-03     192.575E-03
             473            1063     192.344E-03     192.575E-03
             474            1064     211.934E-03     212.103E-03
             475            1064     211.934E-03     212.103E-03
             458            1064     211.934E-03     212.103E-03
             459            1064     211.934E-03     212.103E-03
             475            1065     231.356E-03     231.225E-03
             476            1065     231.356E-03     231.225E-03
             460            1065     231.356E-03     231.225E-03
             459            1065     231.356E-03     231.225E-03
             460            1066     250.190E-03     249.704E-03
             476            1066     250.190E-03     249.704E-03
             477            1066     250.190E-03     249.704E-03
             461            1066     250.190E-03     249.704E-03
             477            1067     267.300E-03     266.569E-03
             462            1067     267.300E-03     266.569E-03
             461            1067     267.300E-03     266.569E-03
             478            1067     267.300E-03     266.569E-03
             462            1068     281.819E-03     280.738E-03
             478            1068     281.819E-03     280.738E-03
             479            1068     281.819E-03     280.738E-03
             463            1068     281.819E-03     280.738E-03
             464            1069     291.205E-03     289.603E-03
             479            1069     291.205E-03     289.603E-03
             480            1069     291.205E-03     289.603E-03
             463            1069     291.205E-03     289.603E-03
             481            1070     38.1193E-03     43.0347E-03
             466            1070     38.1193E-03     43.0347E-03
             465            1070     38.1193E-03     43.0347E-03
             482            1070     38.1193E-03     43.0347E-03
             482            1071     51.2177E-03     56.6683E-03
             483            1071     51.2177E-03     56.6683E-03
             467            1071     51.2177E-03     56.6683E-03
             466            1071     51.2177E-03     56.6683E-03
             484            1072     69.6899E-03     73.1604E-03
             483            1072     69.6899E-03     73.1604E-03
             467            1072     69.6899E-03     73.1604E-03
             468            1072     69.6899E-03     73.1604E-03
             485            1073     89.2755E-03     92.1523E-03
             484            1073     89.2755E-03     92.1523E-03
             469            1073     89.2755E-03     92.1523E-03
             468            1073     89.2755E-03     92.1523E-03
             469            1074     109.277E-03     112.125E-03
             485            1074     109.277E-03     112.125E-03
             470            1074     109.277E-03     112.125E-03
             486            1074     109.277E-03     112.125E-03
             487            1075     129.625E-03     132.523E-03
             470            1075     129.625E-03     132.523E-03
             486            1075     129.625E-03     132.523E-03
             471            1075     129.625E-03     132.523E-03
             471            1076     150.175E-03     153.157E-03
             487            1076     150.175E-03     153.157E-03
             488            1076     150.175E-03     153.157E-03
             472            1076     150.175E-03     153.157E-03
             472            1077     170.940E-03     173.945E-03
             488            1077     170.940E-03     173.945E-03
             489            1077     170.940E-03     173.945E-03
             473            1077     170.940E-03     173.945E-03
             473            1078     191.836E-03     194.901E-03
             490            1078     191.836E-03     194.901E-03
             489            1078     191.836E-03     194.901E-03
             474            1078     191.836E-03     194.901E-03
             475            1079     212.959E-03     216.071E-03
             490            1079     212.959E-03     216.071E-03
             491            1079     212.959E-03     216.071E-03
             474            1079     212.959E-03     216.071E-03
             475            1080     234.120E-03     237.470E-03
             476            1080     234.120E-03     237.470E-03
             492            1080     234.120E-03     237.470E-03
             491            1080     234.120E-03     237.470E-03
             477            1081     255.572E-03     259.238E-03
             492            1081     255.572E-03     259.238E-03
             476            1081     255.572E-03     259.238E-03
             493            1081     255.572E-03     259.238E-03
             477            1082     276.336E-03     280.901E-03
             494            1082     276.336E-03     280.901E-03
             493            1082     276.336E-03     280.901E-03
             478            1082     276.336E-03     280.901E-03
             495            1083     294.520E-03     300.583E-03
             478            1083     294.520E-03     300.583E-03
             479            1083     294.520E-03     300.583E-03
             494            1083     294.520E-03     300.583E-03
             479            1084     310.025E-03     314.313E-03
             495            1084     310.025E-03     314.313E-03
             480            1084     310.025E-03     314.313E-03
             496            1084     310.025E-03     314.313E-03
             481            1085     27.9945E-03     32.6584E-03
             498            1085     27.9945E-03     32.6584E-03
             482            1085     27.9945E-03     32.6584E-03
             497            1085     27.9945E-03     32.6584E-03
             499            1086     43.9386E-03     51.2916E-03
             483            1086     43.9386E-03     51.2916E-03
             498            1086     43.9386E-03     51.2916E-03
             482            1086     43.9386E-03     51.2916E-03
             483            1087     63.8023E-03     70.1285E-03
             484            1087     63.8023E-03     70.1285E-03
             500            1087     63.8023E-03     70.1285E-03
             499            1087     63.8023E-03     70.1285E-03
             485            1088     84.5513E-03     90.1910E-03
             501            1088     84.5513E-03     90.1910E-03
             484            1088     84.5513E-03     90.1910E-03
             500            1088     84.5513E-03     90.1910E-03
             486            1089     105.401E-03     111.011E-03
             501            1089     105.401E-03     111.011E-03
             502            1089     105.401E-03     111.011E-03
             485            1089     105.401E-03     111.011E-03
             486            1090     126.372E-03     132.049E-03
             503            1090     126.372E-03     132.049E-03
             502            1090     126.372E-03     132.049E-03
             487            1090     126.372E-03     132.049E-03
             503            1091     147.516E-03     153.257E-03
             504            1091     147.516E-03     153.257E-03
             488            1091     147.516E-03     153.257E-03
             487            1091     147.516E-03     153.257E-03
             488            1092     168.792E-03     174.602E-03
             505            1092     168.792E-03     174.602E-03
             489            1092     168.792E-03     174.602E-03
             504            1092     168.792E-03     174.602E-03
             490            1093     190.255E-03     196.142E-03
             505            1093     190.255E-03     196.142E-03
             506            1093     190.255E-03     196.142E-03
             489            1093     190.255E-03     196.142E-03
             490            1094     211.888E-03     217.954E-03
             506            1094     211.888E-03     217.954E-03
             491            1094     211.888E-03     217.954E-03
             507            1094     211.888E-03     217.954E-03
             491            1095     233.869E-03     240.329E-03
             492            1095     233.869E-03     240.329E-03
             508            1095     233.869E-03     240.329E-03
             507            1095     233.869E-03     240.329E-03
             508            1096     256.027E-03     263.331E-03
             492            1096     256.027E-03     263.331E-03
             493            1096     256.027E-03     263.331E-03
             509            1096     256.027E-03     263.331E-03
             493            1097     279.851E-03     287.710E-03
             509            1097     279.851E-03     287.710E-03
             494            1097     279.851E-03     287.710E-03
             510            1097     279.851E-03     287.710E-03
             495            1098     303.555E-03     311.737E-03
             511            1098     303.555E-03     311.737E-03
             510            1098     303.555E-03     311.737E-03
             494            1098     303.555E-03     311.737E-03
             511            1099     323.763E-03     332.500E-03
             512            1099     323.763E-03     332.500E-03
             496            1099     323.763E-03     332.500E-03
             495            1099     323.763E-03     332.500E-03
             514            1100     19.4433E-03     28.7534E-03
             498            1100     19.4433E-03     28.7534E-03
             497            1100     19.4433E-03     28.7534E-03
             513            1100     19.4433E-03     28.7534E-03
             499            1101     39.3878E-03     47.7717E-03
             514            1101     39.3878E-03     47.7717E-03
             515            1101     39.3878E-03     47.7717E-03
             498            1101     39.3878E-03     47.7717E-03
             499            1102     60.1115E-03     68.7541E-03
             515            1102     60.1115E-03     68.7541E-03
             516            1102     60.1115E-03     68.7541E-03
             500            1102     60.1115E-03     68.7541E-03
             501            1103     81.1479E-03     89.7030E-03
             516            1103     81.1479E-03     89.7030E-03
             517            1103     81.1479E-03     89.7030E-03
             500            1103     81.1479E-03     89.7030E-03
             501            1104     102.281E-03     110.815E-03
             517            1104     102.281E-03     110.815E-03
             518            1104     102.281E-03     110.815E-03
             502            1104     102.281E-03     110.815E-03
             502            1105     123.448E-03     132.035E-03
             519            1105     123.448E-03     132.035E-03
             518            1105     123.448E-03     132.035E-03
             503            1105     123.448E-03     132.035E-03
             503            1106     144.657E-03     153.287E-03
             519            1106     144.657E-03     153.287E-03
             504            1106     144.657E-03     153.287E-03
             520            1106     144.657E-03     153.287E-03
             504            1107     165.919E-03     174.573E-03
             521            1107     165.919E-03     174.573E-03
             505            1107     165.919E-03     174.573E-03
             520            1107     165.919E-03     174.573E-03
             506            1108     187.249E-03     195.930E-03
             505            1108     187.249E-03     195.930E-03
             521            1108     187.249E-03     195.930E-03
             522            1108     187.249E-03     195.930E-03
             507            1109     208.645E-03     217.432E-03
             522            1109     208.645E-03     217.432E-03
             523            1109     208.645E-03     217.432E-03
             506            1109     208.645E-03     217.432E-03
             523            1110     230.244E-03     239.249E-03
             524            1110     230.244E-03     239.249E-03
             508            1110     230.244E-03     239.249E-03
             507            1110     230.244E-03     239.249E-03
             509            1111     252.361E-03     261.880E-03
             524            1111     252.361E-03     261.880E-03
             525            1111     252.361E-03     261.880E-03
             508            1111     252.361E-03     261.880E-03
             525            1112     275.715E-03     285.839E-03
             526            1112     275.715E-03     285.839E-03
             510            1112     275.715E-03     285.839E-03
             509            1112     275.715E-03     285.839E-03
             527            1113     304.826E-03     313.866E-03
             511            1113     304.826E-03     313.866E-03
             510            1113     304.826E-03     313.866E-03
             526            1113     304.826E-03     313.866E-03
             512            1114     335.688E-03     340.259E-03
             511            1114     335.688E-03     340.259E-03
             528            1114     335.688E-03     340.259E-03
             527            1114     335.688E-03     340.259E-03
             530            1115     18.7512E-03     28.4231E-03
             529            1115     18.7512E-03     28.4231E-03
             514            1115     18.7512E-03     28.4231E-03
             513            1115     18.7512E-03     28.4231E-03
             531            1116     38.4542E-03     48.3054E-03
             515            1116     38.4542E-03     48.3054E-03
             530            1116     38.4542E-03     48.3054E-03
             514            1116     38.4542E-03     48.3054E-03
             516            1117     58.6489E-03     69.5513E-03
             532            1117     58.6489E-03     69.5513E-03
             531            1117     58.6489E-03     69.5513E-03
             515            1117     58.6489E-03     69.5513E-03
             533            1118     79.2524E-03     90.7260E-03
             532            1118     79.2524E-03     90.7260E-03
             516            1118     79.2524E-03     90.7260E-03
             517            1118     79.2524E-03     90.7260E-03
             533            1119     100.088E-03     111.643E-03
             518            1119     100.088E-03     111.643E-03
             517            1119     100.088E-03     111.643E-03
             534            1119     100.088E-03     111.643E-03
             518            1120     120.970E-03     132.548E-03
             519            1120     120.970E-03     132.548E-03
             534            1120     120.970E-03     132.548E-03
             535            1120     120.970E-03     132.548E-03
             520            1121     141.794E-03     153.349E-03
             519            1121     141.794E-03     153.349E-03
             535            1121     141.794E-03     153.349E-03
             536            1121     141.794E-03     153.349E-03
             520            1122     162.547E-03     174.082E-03
             521            1122     162.547E-03     174.082E-03
             537            1122     162.547E-03     174.082E-03
             536            1122     162.547E-03     174.082E-03
             521            1123     183.168E-03     194.645E-03
             538            1123     183.168E-03     194.645E-03
             522            1123     183.168E-03     194.645E-03
             537            1123     183.168E-03     194.645E-03
             522            1124     203.737E-03     215.116E-03
             523            1124     203.737E-03     215.116E-03
             538            1124     203.737E-03     215.116E-03
             539            1124     203.737E-03     215.116E-03
             539            1125     224.242E-03     235.428E-03
             540            1125     224.242E-03     235.428E-03
             523            1125     224.242E-03     235.428E-03
             524            1125     224.242E-03     235.428E-03
             540            1126     245.376E-03     256.167E-03
             525            1126     245.376E-03     256.167E-03
             524            1126     245.376E-03     256.167E-03
             541            1126     245.376E-03     256.167E-03
             525            1127     267.452E-03     277.919E-03
             526            1127     267.452E-03     277.919E-03
             542            1127     267.452E-03     277.919E-03
             541            1127     267.452E-03     277.919E-03
             526            1128     294.787E-03     304.768E-03
             542            1128     294.787E-03     304.768E-03
             543            1128     294.787E-03     304.768E-03
             527            1128     294.787E-03     304.768E-03
             527            1129     334.839E-03     342.110E-03
             528            1129     334.839E-03     342.110E-03
             544            1129     334.839E-03     342.110E-03
             543            1129     334.839E-03     342.110E-03
             994            1451     34.1459E-03     38.6593E-03
            1010            1451     34.1459E-03     38.6593E-03
            1011            1451     34.1459E-03     38.6593E-03
             995            1451     34.1459E-03     38.6593E-03
             996            1452     54.3844E-03     57.2424E-03
            1011            1452     54.3844E-03     57.2424E-03
            1012            1452     54.3844E-03     57.2424E-03
             995            1452     54.3844E-03     57.2424E-03
             997            1453     75.7551E-03     78.3418E-03
            1012            1453     75.7551E-03     78.3418E-03
            1013            1453     75.7551E-03     78.3418E-03
             996            1453     75.7551E-03     78.3418E-03
             997            1454     98.0996E-03     100.621E-03
            1014            1454     98.0996E-03     100.621E-03
            1013            1454     98.0996E-03     100.621E-03
             998            1454     98.0996E-03     100.621E-03
             999            1455     120.937E-03     123.359E-03
            1014            1455     120.937E-03     123.359E-03
            1015            1455     120.937E-03     123.359E-03
             998            1455     120.937E-03     123.359E-03
            1015            1456     143.968E-03     146.374E-03
            1016            1456     143.968E-03     146.374E-03
            1000            1456     143.968E-03     146.374E-03
             999            1456     143.968E-03     146.374E-03
            1000            1457     167.130E-03     169.477E-03
            1017            1457     167.130E-03     169.477E-03
            1001            1457     167.130E-03     169.477E-03
            1016            1457     167.130E-03     169.477E-03
            1001            1458     190.281E-03     192.688E-03
            1017            1458     190.281E-03     192.688E-03
            1002            1458     190.281E-03     192.688E-03
            1018            1458     190.281E-03     192.688E-03
            1019            1459     213.442E-03     215.775E-03
            1002            1459     213.442E-03     215.775E-03
            1003            1459     213.442E-03     215.775E-03
            1018            1459     213.442E-03     215.775E-03
            1003            1460     236.458E-03     238.889E-03
            1020            1460     236.458E-03     238.889E-03
            1019            1460     236.458E-03     238.889E-03
            1004            1460     236.458E-03     238.889E-03
            1004            1461     259.335E-03     261.638E-03
            1021            1461     259.335E-03     261.638E-03
            1020            1461     259.335E-03     261.638E-03
            1005            1461     259.335E-03     261.638E-03
            1005            1462     282.019E-03     284.215E-03
            1021            1462     282.019E-03     284.215E-03
            1022            1462     282.019E-03     284.215E-03
            1006            1462     282.019E-03     284.215E-03
            1022            1463     304.066E-03     306.030E-03
            1023            1463     304.066E-03     306.030E-03
            1007            1463     304.066E-03     306.030E-03
            1006            1463     304.066E-03     306.030E-03
            1023            1464     323.813E-03     325.567E-03
            1008            1464     323.813E-03     325.567E-03
            1007            1464     323.813E-03     325.567E-03
            1024            1464     323.813E-03     325.567E-03
            1009            1465     340.256E-03     342.599E-03
            1024            1465     340.256E-03     342.599E-03
            1008            1465     340.256E-03     342.599E-03
            1025            1465     340.256E-03     342.599E-03
            1027            1466     42.7261E-03     48.2732E-03
            1010            1466     42.7261E-03     48.2732E-03
            1011            1466     42.7261E-03     48.2732E-03
            1026            1466     42.7261E-03     48.2732E-03
            1012            1467     61.1803E-03     63.2992E-03
            1028            1467     61.1803E-03     63.2992E-03
            1027            1467     61.1803E-03     63.2992E-03
            1011            1467     61.1803E-03     63.2992E-03
            1029            1468     83.1614E-03     84.4704E-03
            1013            1468     83.1614E-03     84.4704E-03
            1012            1468     83.1614E-03     84.4704E-03
            1028            1468     83.1614E-03     84.4704E-03
            1014            1469     106.466E-03     107.800E-03
            1030            1469     106.466E-03     107.800E-03
            1029            1469     106.466E-03     107.800E-03
            1013            1469     106.466E-03     107.800E-03
            1014            1470     130.424E-03     131.742E-03
            1015            1470     130.424E-03     131.742E-03
            1030            1470     130.424E-03     131.742E-03
            1031            1470     130.424E-03     131.742E-03
            1031            1471     154.705E-03     156.071E-03
            1015            1471     154.705E-03     156.071E-03
            1016            1471     154.705E-03     156.071E-03
            1032            1471     154.705E-03     156.071E-03
            1017            1472     179.209E-03     180.555E-03
            1032            1472     179.209E-03     180.555E-03
            1016            1472     179.209E-03     180.555E-03
            1033            1472     179.209E-03     180.555E-03
            1034            1473     203.758E-03     205.141E-03
            1018            1473     203.758E-03     205.141E-03
            1017            1473     203.758E-03     205.141E-03
            1033            1473     203.758E-03     205.141E-03
            1035            1474     228.378E-03     229.711E-03
            1018            1474     228.378E-03     229.711E-03
            1034            1474     228.378E-03     229.711E-03
            1019            1474     228.378E-03     229.711E-03
            1035            1475     252.871E-03     254.269E-03
            1020            1475     252.871E-03     254.269E-03
            1036            1475     252.871E-03     254.269E-03
            1019            1475     252.871E-03     254.269E-03
            1036            1476     277.435E-03     278.722E-03
            1020            1476     277.435E-03     278.722E-03
            1021            1476     277.435E-03     278.722E-03
            1037            1476     277.435E-03     278.722E-03
            1038            1477     301.691E-03     303.105E-03
            1022            1477     301.691E-03     303.105E-03
            1021            1477     301.691E-03     303.105E-03
            1037            1477     301.691E-03     303.105E-03
            1039            1478     326.016E-03     327.217E-03
            1038            1478     326.016E-03     327.217E-03
            1023            1478     326.016E-03     327.217E-03
            1022            1478     326.016E-03     327.217E-03
            1023            1479     348.330E-03     349.503E-03
            1024            1479     348.330E-03     349.503E-03
            1040            1479     348.330E-03     349.503E-03
            1039            1479     348.330E-03     349.503E-03
            1024            1480     363.316E-03     365.666E-03
            1025            1480     363.316E-03     365.666E-03
            1041            1480     363.316E-03     365.666E-03
            1040            1480     363.316E-03     365.666E-03
            1043            1481     30.0673E-03     38.5774E-03
            1042            1481     30.0673E-03     38.5774E-03
            1027            1481     30.0673E-03     38.5774E-03
            1026            1481     30.0673E-03     38.5774E-03
            1044            1482     50.7345E-03     58.2997E-03
            1043            1482     50.7345E-03     58.2997E-03
            1027            1482     50.7345E-03     58.2997E-03
            1028            1482     50.7345E-03     58.2997E-03
            1045            1483     74.9351E-03     81.4790E-03
            1029            1483     74.9351E-03     81.4790E-03
            1028            1483     74.9351E-03     81.4790E-03
            1044            1483     74.9351E-03     81.4790E-03
            1030            1484     99.5685E-03     106.190E-03
            1029            1484     99.5685E-03     106.190E-03
            1046            1484     99.5685E-03     106.190E-03
            1045            1484     99.5685E-03     106.190E-03
            1031            1485     124.269E-03     131.141E-03
            1047            1485     124.269E-03     131.141E-03
            1030            1485     124.269E-03     131.141E-03
            1046            1485     124.269E-03     131.141E-03
            1032            1486     149.213E-03     156.174E-03
            1031            1486     149.213E-03     156.174E-03
            1047            1486     149.213E-03     156.174E-03
            1048            1486     149.213E-03     156.174E-03
            1049            1487     174.261E-03     181.275E-03
            1048            1487     174.261E-03     181.275E-03
            1033            1487     174.261E-03     181.275E-03
            1032            1487     174.261E-03     181.275E-03
            1033            1488     199.421E-03     206.400E-03
            1049            1488     199.421E-03     206.400E-03
            1050            1488     199.421E-03     206.400E-03
            1034            1488     199.421E-03     206.400E-03
            1051            1489     224.627E-03     231.637E-03
            1035            1489     224.627E-03     231.637E-03
            1050            1489     224.627E-03     231.637E-03
            1034            1489     224.627E-03     231.637E-03
            1052            1490     249.978E-03     256.926E-03
            1035            1490     249.978E-03     256.926E-03
            1036            1490     249.978E-03     256.926E-03
            1051            1490     249.978E-03     256.926E-03
            1036            1491     275.472E-03     282.497E-03
            1053            1491     275.472E-03     282.497E-03
            1052            1491     275.472E-03     282.497E-03
            1037            1491     275.472E-03     282.497E-03
            1038            1492     301.208E-03     308.459E-03
            1054            1492     301.208E-03     308.459E-03
            1053            1492     301.208E-03     308.459E-03
            1037            1492     301.208E-03     308.459E-03
            1038            1493     327.238E-03     335.157E-03
            1054            1493     327.238E-03     335.157E-03
            1039            1493     327.238E-03     335.157E-03
            1055            1493     327.238E-03     335.157E-03
            1040            1494     356.604E-03     364.733E-03
            1056            1494     356.604E-03     364.733E-03
            1055            1494     356.604E-03     364.733E-03
            1039            1494     356.604E-03     364.733E-03
            1041            1495     384.396E-03     388.838E-03
            1040            1495     384.396E-03     388.838E-03
            1056            1495     384.396E-03     388.838E-03
            1057            1495     384.396E-03     388.838E-03
            1043            1496     22.4941E-03     32.1435E-03
            1058            1496     22.4941E-03     32.1435E-03
            1059            1496     22.4941E-03     32.1435E-03
            1042            1496     22.4941E-03     32.1435E-03
            1059            1497     45.2936E-03     57.6282E-03
            1043            1497     45.2936E-03     57.6282E-03
            1044            1497     45.2936E-03     57.6282E-03
            1060            1497     45.2936E-03     57.6282E-03
            1060            1498     69.9488E-03     82.4951E-03
            1061            1498     69.9488E-03     82.4951E-03
            1045            1498     69.9488E-03     82.4951E-03
            1044            1498     69.9488E-03     82.4951E-03
            1062            1499     94.9565E-03     107.570E-03
            1046            1499     94.9565E-03     107.570E-03
            1045            1499     94.9565E-03     107.570E-03
            1061            1499     94.9565E-03     107.570E-03
            1047            1500     120.038E-03     132.703E-03
            1062            1500     120.038E-03     132.703E-03
            1063            1500     120.038E-03     132.703E-03
            1046            1500     120.038E-03     132.703E-03
            1063            1501     145.162E-03     157.844E-03
            1064            1501     145.162E-03     157.844E-03
            1048            1501     145.162E-03     157.844E-03
            1047            1501     145.162E-03     157.844E-03
            1065            1502     170.300E-03     182.950E-03
            1064            1502     170.300E-03     182.950E-03
            1049            1502     170.300E-03     182.950E-03
            1048            1502     170.300E-03     182.950E-03
            1049            1503     195.388E-03     208.086E-03
            1050            1503     195.388E-03     208.086E-03
            1065            1503     195.388E-03     208.086E-03
            1066            1503     195.388E-03     208.086E-03
            1066            1504     220.468E-03     233.106E-03
            1067            1504     220.468E-03     233.106E-03
            1050            1504     220.468E-03     233.106E-03
            1051            1504     220.468E-03     233.106E-03
            1068            1505     245.447E-03     258.154E-03
            1067            1505     245.447E-03     258.154E-03
            1051            1505     245.447E-03     258.154E-03
            1052            1505     245.447E-03     258.154E-03
            1068            1506     270.326E-03     282.956E-03
            1069            1506     270.326E-03     282.956E-03
            1053            1506     270.326E-03     282.956E-03
            1052            1506     270.326E-03     282.956E-03
            1053            1507     295.205E-03     307.824E-03
            1069            1507     295.205E-03     307.824E-03
            1054            1507     295.205E-03     307.824E-03
            1070            1507     295.205E-03     307.824E-03
            1071            1508     320.066E-03     332.832E-03
            1055            1508     320.066E-03     332.832E-03
            1054            1508     320.066E-03     332.832E-03
            1070            1508     320.066E-03     332.832E-03
            1056            1509     348.113E-03     360.725E-03
            1055            1509     348.113E-03     360.725E-03
            1071            1509     348.113E-03     360.725E-03
            1072            1509     348.113E-03     360.725E-03
            1073            1510     385.904E-03     396.362E-03
            1072            1510     385.904E-03     396.362E-03
            1056            1510     385.904E-03     396.362E-03
            1057            1510     385.904E-03     396.362E-03
            1753            2102     48.1155E-03     52.2839E-03
            1770            2102     48.1155E-03     52.2839E-03
            1754            2102     48.1155E-03     52.2839E-03
            1769            2102     48.1155E-03     52.2839E-03
            1754            2103     60.9624E-03     67.6306E-03
            1755            2103     60.9624E-03     67.6306E-03
            1770            2103     60.9624E-03     67.6306E-03
            1771            2103     60.9624E-03     67.6306E-03
            1755            2104     79.9436E-03     86.9924E-03
            1756            2104     79.9436E-03     86.9924E-03
            1772            2104     79.9436E-03     86.9924E-03
            1771            2104     79.9436E-03     86.9924E-03
            1757            2105     101.336E-03     108.376E-03
            1772            2105     101.336E-03     108.376E-03
            1756            2105     101.336E-03     108.376E-03
            1773            2105     101.336E-03     108.376E-03
            1773            2106     123.798E-03     130.748E-03
            1758            2106     123.798E-03     130.748E-03
            1757            2106     123.798E-03     130.748E-03
            1774            2106     123.798E-03     130.748E-03
            1774            2107     146.771E-03     153.692E-03
            1758            2107     146.771E-03     153.692E-03
            1759            2107     146.771E-03     153.692E-03
            1775            2107     146.771E-03     153.692E-03
            1759            2108     170.106E-03     176.904E-03
            1760            2108     170.106E-03     176.904E-03
            1776            2108     170.106E-03     176.904E-03
            1775            2108     170.106E-03     176.904E-03
            1760            2109     193.521E-03     200.443E-03
            1761            2109     193.521E-03     200.443E-03
            1776            2109     193.521E-03     200.443E-03
            1777            2109     193.521E-03     200.443E-03
            1761            2110     217.280E-03     223.909E-03
            1777            2110     217.280E-03     223.909E-03
            1778            2110     217.280E-03     223.909E-03
            1762            2110     217.280E-03     223.909E-03
            1762            2111     240.800E-03     247.830E-03
            1779            2111     240.800E-03     247.830E-03
            1778            2111     240.800E-03     247.830E-03
            1763            2111     240.800E-03     247.830E-03
            1763            2112     264.891E-03     271.321E-03
            1764            2112     264.891E-03     271.321E-03
            1780            2112     264.891E-03     271.321E-03
            1779            2112     264.891E-03     271.321E-03
            1765            2113     288.428E-03     295.550E-03
            1781            2113     288.428E-03     295.550E-03
            1780            2113     288.428E-03     295.550E-03
            1764            2113     288.428E-03     295.550E-03
            1766            2114     312.470E-03     318.942E-03
            1765            2114     312.470E-03     318.942E-03
            1781            2114     312.470E-03     318.942E-03
            1782            2114     312.470E-03     318.942E-03
            1767            2115     336.601E-03     343.093E-03
            1783            2115     336.601E-03     343.093E-03
            1782            2115     336.601E-03     343.093E-03
            1766            2115     336.601E-03     343.093E-03
            1768            2116     358.165E-03     365.743E-03
            1783            2116     358.165E-03     365.743E-03
            1784            2116     358.165E-03     365.743E-03
            1767            2116     358.165E-03     365.743E-03
            1769            2117     44.7511E-03     45.6933E-03
            1786            2117     44.7511E-03     45.6933E-03
            1770            2117     44.7511E-03     45.6933E-03
            1785            2117     44.7511E-03     45.6933E-03
            1770            2118     58.4119E-03     61.7607E-03
            1786            2118     58.4119E-03     61.7607E-03
            1787            2118     58.4119E-03     61.7607E-03
            1771            2118     58.4119E-03     61.7607E-03
            1788            2119     75.6235E-03     79.2857E-03
            1771            2119     75.6235E-03     79.2857E-03
            1772            2119     75.6235E-03     79.2857E-03
            1787            2119     75.6235E-03     79.2857E-03
            1772            2120     95.4566E-03     98.7009E-03
            1773            2120     95.4566E-03     98.7009E-03
            1789            2120     95.4566E-03     98.7009E-03
            1788            2120     95.4566E-03     98.7009E-03
            1773            2121     116.183E-03     119.211E-03
            1789            2121     116.183E-03     119.211E-03
            1774            2121     116.183E-03     119.211E-03
            1790            2121     116.183E-03     119.211E-03
            1790            2122     137.325E-03     140.320E-03
            1774            2122     137.325E-03     140.320E-03
            1775            2122     137.325E-03     140.320E-03
            1791            2122     137.325E-03     140.320E-03
            1776            2123     158.840E-03     161.660E-03
            1791            2123     158.840E-03     161.660E-03
            1775            2123     158.840E-03     161.660E-03
            1792            2123     158.840E-03     161.660E-03
            1793            2124     180.409E-03     183.324E-03
            1776            2124     180.409E-03     183.324E-03
            1777            2124     180.409E-03     183.324E-03
            1792            2124     180.409E-03     183.324E-03
            1777            2125     202.303E-03     204.931E-03
            1794            2125     202.303E-03     204.931E-03
            1778            2125     202.303E-03     204.931E-03
            1793            2125     202.303E-03     204.931E-03
            1794            2126     223.978E-03     226.898E-03
            1779            2126     223.978E-03     226.898E-03
            1778            2126     223.978E-03     226.898E-03
            1795            2126     223.978E-03     226.898E-03
            1780            2127     246.099E-03     248.565E-03
            1795            2127     246.099E-03     248.565E-03
            1779            2127     246.099E-03     248.565E-03
            1796            2127     246.099E-03     248.565E-03
            1796            2128     267.799E-03     270.667E-03
            1780            2128     267.799E-03     270.667E-03
            1781            2128     267.799E-03     270.667E-03
            1797            2128     267.799E-03     270.667E-03
            1798            2129     289.185E-03     291.416E-03
            1797            2129     289.185E-03     291.416E-03
            1782            2129     289.185E-03     291.416E-03
            1781            2129     289.185E-03     291.416E-03
            1799            2130     312.578E-03     314.728E-03
            1782            2130     312.578E-03     314.728E-03
            1783            2130     312.578E-03     314.728E-03
            1798            2130     312.578E-03     314.728E-03
            1800            2131     338.021E-03     342.791E-03
            1799            2131     338.021E-03     342.791E-03
            1783            2131     338.021E-03     342.791E-03
            1784            2131     338.021E-03     342.791E-03
            1802            2132     40.4510E-03     47.8980E-03
            1786            2132     40.4510E-03     47.8980E-03
            1801            2132     40.4510E-03     47.8980E-03
            1785            2132     40.4510E-03     47.8980E-03
            1786            2133     48.4744E-03     62.1911E-03
            1787            2133     48.4744E-03     62.1911E-03
            1803            2133     48.4744E-03     62.1911E-03
            1802            2133     48.4744E-03     62.1911E-03
            1787            2134     62.8463E-03     78.7924E-03
            1804            2134     62.8463E-03     78.7924E-03
            1788            2134     62.8463E-03     78.7924E-03
            1803            2134     62.8463E-03     78.7924E-03
            1805            2135     80.3858E-03     97.2692E-03
            1788            2135     80.3858E-03     97.2692E-03
            1789            2135     80.3858E-03     97.2692E-03
            1804            2135     80.3858E-03     97.2692E-03
            1789            2136     99.1230E-03     116.353E-03
            1806            2136     99.1230E-03     116.353E-03
            1790            2136     99.1230E-03     116.353E-03
            1805            2136     99.1230E-03     116.353E-03
            1806            2137     118.349E-03     135.850E-03
            1807            2137     118.349E-03     135.850E-03
            1791            2137     118.349E-03     135.850E-03
            1790            2137     118.349E-03     135.850E-03
            1808            2138     137.937E-03     155.525E-03
            1807            2138     137.937E-03     155.525E-03
            1792            2138     137.937E-03     155.525E-03
            1791            2138     137.937E-03     155.525E-03
            1809            2139     157.669E-03     175.425E-03
            1792            2139     157.669E-03     175.425E-03
            1808            2139     157.669E-03     175.425E-03
            1793            2139     157.669E-03     175.425E-03
            1809            2140     177.603E-03     195.331E-03
            1793            2140     177.603E-03     195.331E-03
            1794            2140     177.603E-03     195.331E-03
            1810            2140     177.603E-03     195.331E-03
            1811            2141     197.580E-03     215.456E-03
            1810            2141     197.580E-03     215.456E-03
            1794            2141     197.580E-03     215.456E-03
            1795            2141     197.580E-03     215.456E-03
            1796            2142     217.689E-03     235.456E-03
            1812            2142     217.689E-03     235.456E-03
            1811            2142     217.689E-03     235.456E-03
            1795            2142     217.689E-03     235.456E-03
            1812            2143     237.942E-03     255.796E-03
            1813            2143     237.942E-03     255.796E-03
            1797            2143     237.942E-03     255.796E-03
            1796            2143     237.942E-03     255.796E-03
            1798            2144     257.669E-03     275.737E-03
            1814            2144     257.669E-03     275.737E-03
            1813            2144     257.669E-03     275.737E-03
            1797            2144     257.669E-03     275.737E-03
            1814            2145     279.633E-03     297.487E-03
            1798            2145     279.633E-03     297.487E-03
            1799            2145     279.633E-03     297.487E-03
            1815            2145     279.633E-03     297.487E-03
            1816            2146     314.619E-03     330.122E-03
            1800            2146     314.619E-03     330.122E-03
            1799            2146     314.619E-03     330.122E-03
            1815            2146     314.619E-03     330.122E-03
            1817            2147     55.3929E-03     54.9679E-03
            1818            2147     55.3929E-03     54.9679E-03
            1801            2147     55.3929E-03     54.9679E-03
            1802            2147     55.3929E-03     54.9679E-03
            1818            2148     66.2782E-03     62.8620E-03
            1802            2148     66.2782E-03     62.8620E-03
            1819            2148     66.2782E-03     62.8620E-03
            1803            2148     66.2782E-03     62.8620E-03
            1804            2149     81.0555E-03     76.1526E-03
            1820            2149     81.0555E-03     76.1526E-03
            1803            2149     81.0555E-03     76.1526E-03
            1819            2149     81.0555E-03     76.1526E-03
            1821            2150     97.8546E-03     92.5508E-03
            1820            2150     97.8546E-03     92.5508E-03
            1804            2150     97.8546E-03     92.5508E-03
            1805            2150     97.8546E-03     92.5508E-03
            1805            2151     115.887E-03     110.199E-03
            1822            2151     115.887E-03     110.199E-03
            1821            2151     115.887E-03     110.199E-03
            1806            2151     115.887E-03     110.199E-03
            1806            2152     134.609E-03     128.608E-03
            1823            2152     134.609E-03     128.608E-03
            1822            2152     134.609E-03     128.608E-03
            1807            2152     134.609E-03     128.608E-03
            1824            2153     153.693E-03     147.555E-03
            1807            2153     153.693E-03     147.555E-03
            1823            2153     153.693E-03     147.555E-03
            1808            2153     153.693E-03     147.555E-03
            1825            2154     173.089E-03     166.770E-03
            1824            2154     173.089E-03     166.770E-03
            1808            2154     173.089E-03     166.770E-03
            1809            2154     173.089E-03     166.770E-03
            1826            2155     192.575E-03     186.244E-03
            1809            2155     192.575E-03     186.244E-03
            1810            2155     192.575E-03     186.244E-03
            1825            2155     192.575E-03     186.244E-03
            1810            2156     212.248E-03     205.746E-03
            1811            2156     212.248E-03     205.746E-03
            1826            2156     212.248E-03     205.746E-03
            1827            2156     212.248E-03     205.746E-03
            1811            2157     231.781E-03     225.327E-03
            1827            2157     231.781E-03     225.327E-03
            1828            2157     231.781E-03     225.327E-03
            1812            2157     231.781E-03     225.327E-03
            1828            2158     251.525E-03     244.853E-03
            1812            2158     251.525E-03     244.853E-03
            1813            2158     251.525E-03     244.853E-03
            1829            2158     251.525E-03     244.853E-03
            1814            2159     271.185E-03     264.763E-03
            1829            2159     271.185E-03     264.763E-03
            1813            2159     271.185E-03     264.763E-03
            1830            2159     271.185E-03     264.763E-03
            1814            2160     291.065E-03     284.577E-03
            1815            2160     291.065E-03     284.577E-03
            1830            2160     291.065E-03     284.577E-03
            1831            2160     291.065E-03     284.577E-03
            1816            2161     296.791E-03     287.714E-03
            1831            2161     296.791E-03     287.714E-03
            1815            2161     296.791E-03     287.714E-03
            1832            2161     296.791E-03     287.714E-03
            2273            2468     21.7632E-15     21.5325E-15
            2289            2468     21.7632E-15     21.5325E-15
            2274            2468     21.7632E-15     21.5325E-15
            2290            2468     21.7632E-15     21.5325E-15
            2275            2469     21.8623E-15     21.6174E-15
            2290            2469     21.8623E-15     21.6174E-15
            2291            2469     21.8623E-15     21.6174E-15
            2274            2469     21.8623E-15     21.6174E-15
            2291            2470     18.7656E-15     18.4652E-15
            2292            2470     18.7656E-15     18.4652E-15
            2276            2470     18.7656E-15     18.4652E-15
            2275            2470     18.7656E-15     18.4652E-15
            2292            2471     15.8819E-15     14.0742E-15
            2293            2471     15.8819E-15     14.0742E-15
            2277            2471     15.8819E-15     14.0742E-15
            2276            2471     15.8819E-15     14.0742E-15
            2293            2472     15.2623E-15     12.6754E-15
            2277            2472     15.2623E-15     12.6754E-15
            2278            2472     15.2623E-15     12.6754E-15
            2294            2472     15.2623E-15     12.6754E-15
            2294            2473     12.0682E-15     12.1663E-15
            2279            2473     12.0682E-15     12.1663E-15
            2295            2473     12.0682E-15     12.1663E-15
            2278            2473     12.0682E-15     12.1663E-15
            2279            2474     8.30163E-15     9.39469E-15
            2296            2474     8.30163E-15     9.39469E-15
            2280            2474     8.30163E-15     9.39469E-15
            2295            2474     8.30163E-15     9.39469E-15
            2296            2475     10.4205E-15     10.3997E-15
            2281            2475     10.4205E-15     10.3997E-15
            2297            2475     10.4205E-15     10.3997E-15
            2280            2475     10.4205E-15     10.3997E-15
            2297            2476     11.1914E-15     11.0834E-15
            2282            2476     11.1914E-15     11.0834E-15
            2298            2476     11.1914E-15     11.0834E-15
            2281            2476     11.1914E-15     11.0834E-15
            2282            2477     15.9125E-15     15.9582E-15
            2299            2477     15.9125E-15     15.9582E-15
            2298            2477     15.9125E-15     15.9582E-15
            2283            2477     15.9125E-15     15.9582E-15
            2284            2478     18.0741E-15     17.5269E-15
            2283            2478     18.0741E-15     17.5269E-15
            2300            2478     18.0741E-15     17.5269E-15
            2299            2478     18.0741E-15     17.5269E-15
            2301            2479     15.3388E-15     15.4581E-15
            2284            2479     15.3388E-15     15.4581E-15
            2285            2479     15.3388E-15     15.4581E-15
            2300            2479     15.3388E-15     15.4581E-15
            2302            2480     14.6824E-15     13.7002E-15
            2285            2480     14.6824E-15     13.7002E-15
            2301            2480     14.6824E-15     13.7002E-15
            2286            2480     14.6824E-15     13.7002E-15
            2303            2481     15.6671E-15     14.2882E-15
            2286            2481     15.6671E-15     14.2882E-15
            2287            2481     15.6671E-15     14.2882E-15
            2302            2481     15.6671E-15     14.2882E-15
            2287            2482     18.5382E-15     17.3324E-15
            2288            2482     18.5382E-15     17.3324E-15
            2303            2482     18.5382E-15     17.3324E-15
            2304            2482     18.5382E-15     17.3324E-15
            2289            2483     22.4621E-15     21.9771E-15
            2305            2483     22.4621E-15     21.9771E-15
            2290            2483     22.4621E-15     21.9771E-15
            2306            2483     22.4621E-15     21.9771E-15
            2307            2484     27.6238E-15     27.3996E-15
            2306            2484     27.6238E-15     27.3996E-15
            2290            2484     27.6238E-15     27.3996E-15
            2291            2484     27.6238E-15     27.3996E-15
            2307            2485     17.5400E-15     17.7511E-15
            2292            2485     17.5400E-15     17.7511E-15
            2308            2485     17.5400E-15     17.7511E-15
            2291            2485     17.5400E-15     17.7511E-15
            2309            2486     15.4172E-15     14.9301E-15
            2293            2486     15.4172E-15     14.9301E-15
            2292            2486     15.4172E-15     14.9301E-15
            2308            2486     15.4172E-15     14.9301E-15
            2309            2487     17.6640E-15     16.4265E-15
            2310            2487     17.6640E-15     16.4265E-15
            2293            2487     17.6640E-15     16.4265E-15
            2294            2487     17.6640E-15     16.4265E-15
            2294            2488     11.4053E-15     11.5856E-15
            2310            2488     11.4053E-15     11.5856E-15
            2311            2488     11.4053E-15     11.5856E-15
            2295            2488     11.4053E-15     11.5856E-15
            2295            2489     6.35715E-15     7.48425E-15
            2312            2489     6.35715E-15     7.48425E-15
            2296            2489     6.35715E-15     7.48425E-15
            2311            2489     6.35715E-15     7.48425E-15
            2296            2490     9.58937E-15     9.94627E-15
            2312            2490     9.58937E-15     9.94627E-15
            2313            2490     9.58937E-15     9.94627E-15
            2297            2490     9.58937E-15     9.94627E-15
            2314            2491     16.0448E-15     16.3693E-15
            2313            2491     16.0448E-15     16.3693E-15
            2298            2491     16.0448E-15     16.3693E-15
            2297            2491     16.0448E-15     16.3693E-15
            2298            2492     16.8593E-15     17.3289E-15
            2314            2492     16.8593E-15     17.3289E-15
            2315            2492     16.8593E-15     17.3289E-15
            2299            2492     16.8593E-15     17.3289E-15
            2300            2493     13.9287E-15     13.7199E-15
            2316            2493     13.9287E-15     13.7199E-15
            2315            2493     13.9287E-15     13.7199E-15
            2299            2493     13.9287E-15     13.7199E-15
            2317            2494     19.5848E-15     19.0344E-15
            2300            2494     19.5848E-15     19.0344E-15
            2301            2494     19.5848E-15     19.0344E-15
            2316            2494     19.5848E-15     19.0344E-15
            2318            2495     21.5182E-15     21.2138E-15
            2301            2495     21.5182E-15     21.2138E-15
            2302            2495     21.5182E-15     21.2138E-15
            2317            2495     21.5182E-15     21.2138E-15
            2302            2496     19.6605E-15     18.8409E-15
            2319            2496     19.6605E-15     18.8409E-15
            2318            2496     19.6605E-15     18.8409E-15
            2303            2496     19.6605E-15     18.8409E-15
            2303            2497     19.1488E-15     16.9450E-15
            2304            2497     19.1488E-15     16.9450E-15
            2320            2497     19.1488E-15     16.9450E-15
            2319            2497     19.1488E-15     16.9450E-15
            2306            2498     21.2377E-15     21.2365E-15
            2321            2498     21.2377E-15     21.2365E-15
            2305            2498     21.2377E-15     21.2365E-15
            2322            2498     21.2377E-15     21.2365E-15
            2307            2499     27.9828E-15     27.8218E-15
            2306            2499     27.9828E-15     27.8218E-15
            2323            2499     27.9828E-15     27.8218E-15
            2322            2499     27.9828E-15     27.8218E-15
            2323            2500     20.4523E-15     20.1259E-15
            2307            2500     20.4523E-15     20.1259E-15
            2308            2500     20.4523E-15     20.1259E-15
            2324            2500     20.4523E-15     20.1259E-15
            2309            2501     17.7840E-15     17.0955E-15
            2325            2501     17.7840E-15     17.0955E-15
            2324            2501     17.7840E-15     17.0955E-15
            2308            2501     17.7840E-15     17.0955E-15
            2325            2502     19.3872E-15     19.2007E-15
            2309            2502     19.3872E-15     19.2007E-15
            2326            2502     19.3872E-15     19.2007E-15
            2310            2502     19.3872E-15     19.2007E-15
            2310            2503     16.0422E-15     16.0819E-15
            2326            2503     16.0422E-15     16.0819E-15
            2327            2503     16.0422E-15     16.0819E-15
            2311            2503     16.0422E-15     16.0819E-15
            2327            2504     10.0525E-15     9.42353E-15
            2311            2504     10.0525E-15     9.42353E-15
            2312            2504     10.0525E-15     9.42353E-15
            2328            2504     10.0525E-15     9.42353E-15
            2329            2505     14.8551E-15     14.6222E-15
            2313            2505     14.8551E-15     14.6222E-15
            2312            2505     14.8551E-15     14.6222E-15
            2328            2505     14.8551E-15     14.6222E-15
            2313            2506     24.6133E-15     25.3653E-15
            2329            2506     24.6133E-15     25.3653E-15
            2314            2506     24.6133E-15     25.3653E-15
            2330            2506     24.6133E-15     25.3653E-15
            2315            2507     20.1439E-15     20.9888E-15
            2314            2507     20.1439E-15     20.9888E-15
            2331            2507     20.1439E-15     20.9888E-15
            2330            2507     20.1439E-15     20.9888E-15
            2316            2508     14.9737E-15     15.7903E-15
            2332            2508     14.9737E-15     15.7903E-15
            2315            2508     14.9737E-15     15.7903E-15
            2331            2508     14.9737E-15     15.7903E-15
            2332            2509     19.0280E-15     19.1599E-15
            2317            2509     19.0280E-15     19.1599E-15
            2333            2509     19.0280E-15     19.1599E-15
            2316            2509     19.0280E-15     19.1599E-15
            2318            2510     24.8606E-15     24.6514E-15
            2333            2510     24.8606E-15     24.6514E-15
            2317            2510     24.8606E-15     24.6514E-15
            2334            2510     24.8606E-15     24.6514E-15
            2335            2511     27.6598E-15     26.4929E-15
            2334            2511     27.6598E-15     26.4929E-15
            2319            2511     27.6598E-15     26.4929E-15
            2318            2511     27.6598E-15     26.4929E-15
            2319            2512     22.8718E-15     21.8973E-15
            2336            2512     22.8718E-15     21.8973E-15
            2335            2512     22.8718E-15     21.8973E-15
            2320            2512     22.8718E-15     21.8973E-15
            2338            2513     17.8984E-15     18.1814E-15
            2322            2513     17.8984E-15     18.1814E-15
            2321            2513     17.8984E-15     18.1814E-15
            2337            2513     17.8984E-15     18.1814E-15
            2322            2514     23.0543E-15     23.2767E-15
            2339            2514     23.0543E-15     23.2767E-15
            2338            2514     23.0543E-15     23.2767E-15
            2323            2514     23.0543E-15     23.2767E-15
            2324            2515     23.2865E-15     23.0913E-15
            2339            2515     23.2865E-15     23.0913E-15
            2340            2515     23.2865E-15     23.0913E-15
            2323            2515     23.2865E-15     23.0913E-15
            2341            2516     14.0216E-15     13.7461E-15
            2324            2516     14.0216E-15     13.7461E-15
            2340            2516     14.0216E-15     13.7461E-15
            2325            2516     14.0216E-15     13.7461E-15
            2341            2517     10.1066E-15     10.5706E-15
            2326            2517     10.1066E-15     10.5706E-15
            2342            2517     10.1066E-15     10.5706E-15
            2325            2517     10.1066E-15     10.5706E-15
            2343            2518     15.1018E-15     14.7496E-15
            2342            2518     15.1018E-15     14.7496E-15
            2327            2518     15.1018E-15     14.7496E-15
            2326            2518     15.1018E-15     14.7496E-15
            2327            2519     13.2577E-15     11.7827E-15
            2343            2519     13.2577E-15     11.7827E-15
            2328            2519     13.2577E-15     11.7827E-15
            2344            2519     13.2577E-15     11.7827E-15
            2328            2520     17.3125E-15     16.6151E-15
            2344            2520     17.3125E-15     16.6151E-15
            2345            2520     17.3125E-15     16.6151E-15
            2329            2520     17.3125E-15     16.6151E-15
            2345            2521     22.2572E-15     22.8833E-15
            2329            2521     22.2572E-15     22.8833E-15
            2330            2521     22.2572E-15     22.8833E-15
            2346            2521     22.2572E-15     22.8833E-15
            2347            2522     18.0522E-15     18.5307E-15
            2330            2522     18.0522E-15     18.5307E-15
            2346            2522     18.0522E-15     18.5307E-15
            2331            2522     18.0522E-15     18.5307E-15
            2347            2523     18.1492E-15     18.7477E-15
            2332            2523     18.1492E-15     18.7477E-15
            2348            2523     18.1492E-15     18.7477E-15
            2331            2523     18.1492E-15     18.7477E-15
            2348            2524     15.3740E-15     16.3958E-15
            2332            2524     15.3740E-15     16.3958E-15
            2333            2524     15.3740E-15     16.3958E-15
            2349            2524     15.3740E-15     16.3958E-15
            2333            2525     17.6899E-15     18.3670E-15
            2349            2525     17.6899E-15     18.3670E-15
            2334            2525     17.6899E-15     18.3670E-15
            2350            2525     17.6899E-15     18.3670E-15
            2334            2526     22.3048E-15     23.2690E-15
            2351            2526     22.3048E-15     23.2690E-15
            2350            2526     22.3048E-15     23.2690E-15
            2335            2526     22.3048E-15     23.2690E-15
            2336            2527     18.2939E-15     17.5744E-15
            2351            2527     18.2939E-15     17.5744E-15
            2352            2527     18.2939E-15     17.5744E-15
            2335            2527     18.2939E-15     17.5744E-15
            2353            2528     16.0453E-15     16.8668E-15
            2337            2528     16.0453E-15     16.8668E-15
            2338            2528     16.0453E-15     16.8668E-15
            2354            2528     16.0453E-15     16.8668E-15
            2339            2529     15.2286E-15     15.2435E-15
            2355            2529     15.2286E-15     15.2435E-15
            2338            2529     15.2286E-15     15.2435E-15
            2354            2529     15.2286E-15     15.2435E-15
            2340            2530     16.1172E-15     15.8224E-15
            2339            2530     16.1172E-15     15.8224E-15
            2356            2530     16.1172E-15     15.8224E-15
            2355            2530     16.1172E-15     15.8224E-15
            2340            2531     14.1949E-15     14.3555E-15
            2357            2531     14.1949E-15     14.3555E-15
            2341            2531     14.1949E-15     14.3555E-15
            2356            2531     14.1949E-15     14.3555E-15
            2358            2532     16.8888E-15     17.2331E-15
            2357            2532     16.8888E-15     17.2331E-15
            2342            2532     16.8888E-15     17.2331E-15
            2341            2532     16.8888E-15     17.2331E-15
            2342            2533     20.9509E-15     20.4144E-15
            2358            2533     20.9509E-15     20.4144E-15
            2343            2533     20.9509E-15     20.4144E-15
            2359            2533     20.9509E-15     20.4144E-15
            2343            2534     19.1238E-15     17.9033E-15
            2360            2534     19.1238E-15     17.9033E-15
            2344            2534     19.1238E-15     17.9033E-15
            2359            2534     19.1238E-15     17.9033E-15
            2360            2535     21.4691E-15     20.7431E-15
            2345            2535     21.4691E-15     20.7431E-15
            2361            2535     21.4691E-15     20.7431E-15
            2344            2535     21.4691E-15     20.7431E-15
            2346            2536     18.2577E-15     19.1895E-15
            2362            2536     18.2577E-15     19.1895E-15
            2345            2536     18.2577E-15     19.1895E-15
            2361            2536     18.2577E-15     19.1895E-15
            2346            2537     15.1501E-15     16.8964E-15
            2363            2537     15.1501E-15     16.8964E-15
            2362            2537     15.1501E-15     16.8964E-15
            2347            2537     15.1501E-15     16.8964E-15
            2363            2538     15.9454E-15     16.3341E-15
            2348            2538     15.9454E-15     16.3341E-15
            2347            2538     15.9454E-15     16.3341E-15
            2364            2538     15.9454E-15     16.3341E-15
            2364            2539     9.87423E-15     10.1795E-15
            2348            2539     9.87423E-15     10.1795E-15
            2365            2539     9.87423E-15     10.1795E-15
            2349            2539     9.87423E-15     10.1795E-15
            2366            2540     8.29336E-15     9.36869E-15
            2349            2540     8.29336E-15     9.36869E-15
            2365            2540     8.29336E-15     9.36869E-15
            2350            2540     8.29336E-15     9.36869E-15
            2367            2541     10.5970E-15     13.7088E-15
            2350            2541     10.5970E-15     13.7088E-15
            2366            2541     10.5970E-15     13.7088E-15
            2351            2541     10.5970E-15     13.7088E-15
            2367            2542     13.0496E-15     13.2690E-15
            2368            2542     13.0496E-15     13.2690E-15
            2352            2542     13.0496E-15     13.2690E-15
            2351            2542     13.0496E-15     13.2690E-15
            2545            2693     21.7979E-15     27.8983E-15
            2562            2693     21.7979E-15     27.8983E-15
            2546            2693     21.7979E-15     27.8983E-15
            2561            2693     21.7979E-15     27.8983E-15
            2546            2694     18.2196E-15     21.0426E-15
            2562            2694     18.2196E-15     21.0426E-15
            2547            2694     18.2196E-15     21.0426E-15
            2563            2694     18.2196E-15     21.0426E-15
            2548            2695     16.8473E-15     17.1043E-15
            2547            2695     16.8473E-15     17.1043E-15
            2564            2695     16.8473E-15     17.1043E-15
            2563            2695     16.8473E-15     17.1043E-15
            2565            2696     17.3881E-15     15.0867E-15
            2549            2696     17.3881E-15     15.0867E-15
            2564            2696     17.3881E-15     15.0867E-15
            2548            2696     17.3881E-15     15.0867E-15
            2566            2697     17.5672E-15     12.1766E-15
            2565            2697     17.5672E-15     12.1766E-15
            2550            2697     17.5672E-15     12.1766E-15
            2549            2697     17.5672E-15     12.1766E-15
            2566            2698     21.2369E-15     14.3350E-15
            2551            2698     21.2369E-15     14.3350E-15
            2550            2698     21.2369E-15     14.3350E-15
            2567            2698     21.2369E-15     14.3350E-15
            2567            2699     22.4528E-15     20.7053E-15
            2568            2699     22.4528E-15     20.7053E-15
            2551            2699     22.4528E-15     20.7053E-15
            2552            2699     22.4528E-15     20.7053E-15
            2568            2700     19.4029E-15     19.0838E-15
            2569            2700     19.4029E-15     19.0838E-15
            2552            2700     19.4029E-15     19.0838E-15
            2553            2700     19.4029E-15     19.0838E-15
            2569            2701     19.1681E-15     18.4050E-15
            2570            2701     19.1681E-15     18.4050E-15
            2553            2701     19.1681E-15     18.4050E-15
            2554            2701     19.1681E-15     18.4050E-15
            2571            2702     16.7858E-15     17.3428E-15
            2554            2702     16.7858E-15     17.3428E-15
            2555            2702     16.7858E-15     17.3428E-15
            2570            2702     16.7858E-15     17.3428E-15
            2571            2703     12.9541E-15     13.1182E-15
            2572            2703     12.9541E-15     13.1182E-15
            2556            2703     12.9541E-15     13.1182E-15
            2555            2703     12.9541E-15     13.1182E-15
            2557            2704     13.3784E-15     13.5973E-15
            2573            2704     13.3784E-15     13.5973E-15
            2572            2704     13.3784E-15     13.5973E-15
            2556            2704     13.3784E-15     13.5973E-15
            2573            2705     18.7296E-15     17.8935E-15
            2574            2705     18.7296E-15     17.8935E-15
            2558            2705     18.7296E-15     17.8935E-15
            2557            2705     18.7296E-15     17.8935E-15
            2575            2706     17.4561E-15     17.2430E-15
            2574            2706     17.4561E-15     17.2430E-15
            2558            2706     17.4561E-15     17.2430E-15
            2559            2706     17.4561E-15     17.2430E-15
            2559            2707     18.5720E-15     19.3259E-15
            2560            2707     18.5720E-15     19.3259E-15
            2575            2707     18.5720E-15     19.3259E-15
            2576            2707     18.5720E-15     19.3259E-15
            2577            2708     26.3000E-15     30.9087E-15
            2562            2708     26.3000E-15     30.9087E-15
            2578            2708     26.3000E-15     30.9087E-15
            2561            2708     26.3000E-15     30.9087E-15
            2563            2709     23.2254E-15     25.1158E-15
            2579            2709     23.2254E-15     25.1158E-15
            2562            2709     23.2254E-15     25.1158E-15
            2578            2709     23.2254E-15     25.1158E-15
            2563            2710     18.9833E-15     13.6106E-15
            2580            2710     18.9833E-15     13.6106E-15
            2579            2710     18.9833E-15     13.6106E-15
            2564            2710     18.9833E-15     13.6106E-15
            2581            2711     15.8930E-15     14.2353E-15
            2565            2711     15.8930E-15     14.2353E-15
            2564            2711     15.8930E-15     14.2353E-15
            2580            2711     15.8930E-15     14.2353E-15
            2581            2712     11.9626E-15     12.8067E-15
            2565            2712     11.9626E-15     12.8067E-15
            2582            2712     11.9626E-15     12.8067E-15
            2566            2712     11.9626E-15     12.8067E-15
            2566            2713     14.6996E-15     12.4725E-15
            2567            2713     14.6996E-15     12.4725E-15
            2583            2713     14.6996E-15     12.4725E-15
            2582            2713     14.6996E-15     12.4725E-15
            2583            2714     19.0314E-15     17.4456E-15
            2568            2714     19.0314E-15     17.4456E-15
            2567            2714     19.0314E-15     17.4456E-15
            2584            2714     19.0314E-15     17.4456E-15
            2569            2715     20.3036E-15     19.4836E-15
            2568            2715     20.3036E-15     19.4836E-15
            2585            2715     20.3036E-15     19.4836E-15
            2584            2715     20.3036E-15     19.4836E-15
            2569            2716     19.0201E-15     20.2135E-15
            2570            2716     19.0201E-15     20.2135E-15
            2586            2716     19.0201E-15     20.2135E-15
            2585            2716     19.0201E-15     20.2135E-15
            2587            2717     12.4886E-15     13.6436E-15
            2570            2717     12.4886E-15     13.6436E-15
            2571            2717     12.4886E-15     13.6436E-15
            2586            2717     12.4886E-15     13.6436E-15
            2571            2718     14.0754E-15     13.6952E-15
            2572            2718     14.0754E-15     13.6952E-15
            2587            2718     14.0754E-15     13.6952E-15
            2588            2718     14.0754E-15     13.6952E-15
            2573            2719     17.6038E-15     17.2439E-15
            2589            2719     17.6038E-15     17.2439E-15
            2588            2719     17.6038E-15     17.2439E-15
            2572            2719     17.6038E-15     17.2439E-15
            2589            2720     19.8302E-15     18.9137E-15
            2573            2720     19.8302E-15     18.9137E-15
            2574            2720     19.8302E-15     18.9137E-15
            2590            2720     19.8302E-15     18.9137E-15
            2575            2721     17.1317E-15     16.4446E-15
            2590            2721     17.1317E-15     16.4446E-15
            2574            2721     17.1317E-15     16.4446E-15
            2591            2721     17.1317E-15     16.4446E-15
            2575            2722     24.0242E-15     23.8832E-15
            2591            2722     24.0242E-15     23.8832E-15
            2592            2722     24.0242E-15     23.8832E-15
            2576            2722     24.0242E-15     23.8832E-15
            2577            2723     26.6911E-15     29.4842E-15
            2594            2723     26.6911E-15     29.4842E-15
            2593            2723     26.6911E-15     29.4842E-15
            2578            2723     26.6911E-15     29.4842E-15
            2579            2724     26.9132E-15     25.9451E-15
            2595            2724     26.9132E-15     25.9451E-15
            2594            2724     26.9132E-15     25.9451E-15
            2578            2724     26.9132E-15     25.9451E-15
            2595            2725     18.2249E-15     13.2031E-15
            2579            2725     18.2249E-15     13.2031E-15
            2580            2725     18.2249E-15     13.2031E-15
            2596            2725     18.2249E-15     13.2031E-15
            2597            2726     13.3819E-15     13.0719E-15
            2596            2726     13.3819E-15     13.0719E-15
            2581            2726     13.3819E-15     13.0719E-15
            2580            2726     13.3819E-15     13.0719E-15
            2582            2727     16.4327E-15     16.6672E-15
            2581            2727     16.4327E-15     16.6672E-15
            2597            2727     16.4327E-15     16.6672E-15
            2598            2727     16.4327E-15     16.6672E-15
            2583            2728     14.2388E-15     14.9976E-15
            2598            2728     14.2388E-15     14.9976E-15
            2582            2728     14.2388E-15     14.9976E-15
            2599            2728     14.2388E-15     14.9976E-15
            2600            2729     11.2034E-15     11.5813E-15
            2584            2729     11.2034E-15     11.5813E-15
            2599            2729     11.2034E-15     11.5813E-15
            2583            2729     11.2034E-15     11.5813E-15
            2585            2730     12.9412E-15     11.9913E-15
            2601            2730     12.9412E-15     11.9913E-15
            2600            2730     12.9412E-15     11.9913E-15
            2584            2730     12.9412E-15     11.9913E-15
            2585            2731     15.3627E-15     15.0429E-15
            2586            2731     15.3627E-15     15.0429E-15
            2601            2731     15.3627E-15     15.0429E-15
            2602            2731     15.3627E-15     15.0429E-15
            2587            2732     14.5755E-15     14.1249E-15
            2586            2732     14.5755E-15     14.1249E-15
            2602            2732     14.5755E-15     14.1249E-15
            2603            2732     14.5755E-15     14.1249E-15
            2603            2733     14.7223E-15     14.4063E-15
            2587            2733     14.7223E-15     14.4063E-15
            2604            2733     14.7223E-15     14.4063E-15
            2588            2733     14.7223E-15     14.4063E-15
            2605            2734     18.0924E-15     18.5569E-15
            2588            2734     18.0924E-15     18.5569E-15
            2604            2734     18.0924E-15     18.5569E-15
            2589            2734     18.0924E-15     18.5569E-15
            2590            2735     17.4803E-15     17.3896E-15
            2606            2735     17.4803E-15     17.3896E-15
            2589            2735     17.4803E-15     17.3896E-15
            2605            2735     17.4803E-15     17.3896E-15
            2607            2736     12.3574E-15     11.9116E-15
            2591            2736     12.3574E-15     11.9116E-15
            2590            2736     12.3574E-15     11.9116E-15
            2606            2736     12.3574E-15     11.9116E-15
            2591            2737     19.2200E-15     19.7762E-15
            2592            2737     19.2200E-15     19.7762E-15
            2607            2737     19.2200E-15     19.7762E-15
            2608            2737     19.2200E-15     19.7762E-15
            2594            2738     23.7408E-15     23.7866E-15
            2593            2738     23.7408E-15     23.7866E-15
            2609            2738     23.7408E-15     23.7866E-15
            2610            2738     23.7408E-15     23.7866E-15
            2611            2739     22.6097E-15     18.4863E-15
            2594            2739     22.6097E-15     18.4863E-15
            2610            2739     22.6097E-15     18.4863E-15
            2595            2739     22.6097E-15     18.4863E-15
            2611            2740     15.5403E-15     11.9168E-15
            2596            2740     15.5403E-15     11.9168E-15
            2595            2740     15.5403E-15     11.9168E-15
            2612            2740     15.5403E-15     11.9168E-15
            2613            2741     10.4298E-15     10.5745E-15
            2596            2741     10.4298E-15     10.5745E-15
            2612            2741     10.4298E-15     10.5745E-15
            2597            2741     10.4298E-15     10.5745E-15
            2598            2742     11.8690E-15     12.2993E-15
            2614            2742     11.8690E-15     12.2993E-15
            2613            2742     11.8690E-15     12.2993E-15
            2597            2742     11.8690E-15     12.2993E-15
            2599            2743     16.2178E-15     16.4662E-15
            2614            2743     16.2178E-15     16.4662E-15
            2598            2743     16.2178E-15     16.4662E-15
            2615            2743     16.2178E-15     16.4662E-15
            2615            2744     16.9154E-15     14.9003E-15
            2600            2744     16.9154E-15     14.9003E-15
            2616            2744     16.9154E-15     14.9003E-15
            2599            2744     16.9154E-15     14.9003E-15
            2617            2745     13.0729E-15     11.9623E-15
            2600            2745     13.0729E-15     11.9623E-15
            2616            2745     13.0729E-15     11.9623E-15
            2601            2745     13.0729E-15     11.9623E-15
            2602            2746     11.6853E-15     10.2853E-15
            2618            2746     11.6853E-15     10.2853E-15
            2601            2746     11.6853E-15     10.2853E-15
            2617            2746     11.6853E-15     10.2853E-15
            2602            2747     15.0029E-15     13.3161E-15
            2618            2747     15.0029E-15     13.3161E-15
            2603            2747     15.0029E-15     13.3161E-15
            2619            2747     15.0029E-15     13.3161E-15
            2620            2748     16.3463E-15     15.5045E-15
            2603            2748     16.3463E-15     15.5045E-15
            2619            2748     16.3463E-15     15.5045E-15
            2604            2748     16.3463E-15     15.5045E-15
            2621            2749     15.4819E-15     15.0370E-15
            2605            2749     15.4819E-15     15.0370E-15
            2620            2749     15.4819E-15     15.0370E-15
            2604            2749     15.4819E-15     15.0370E-15
            2622            2750     16.9042E-15     16.4432E-15
            2621            2750     16.9042E-15     16.4432E-15
            2606            2750     16.9042E-15     16.4432E-15
            2605            2750     16.9042E-15     16.4432E-15
            2623            2751     13.4804E-15     13.2782E-15
            2607            2751     13.4804E-15     13.2782E-15
            2622            2751     13.4804E-15     13.2782E-15
            2606            2751     13.4804E-15     13.2782E-15
            2607            2752     11.3324E-15     12.3665E-15
            2608            2752     11.3324E-15     12.3665E-15
            2624            2752     11.3324E-15     12.3665E-15
            2623            2752     11.3324E-15     12.3665E-15
            2625            2753     19.6198E-15     21.3573E-15
            2626            2753     19.6198E-15     21.3573E-15
            2610            2753     19.6198E-15     21.3573E-15
            2609            2753     19.6198E-15     21.3573E-15
            2610            2754     18.7324E-15     16.6895E-15
            2626            2754     18.7324E-15     16.6895E-15
            2627            2754     18.7324E-15     16.6895E-15
            2611            2754     18.7324E-15     16.6895E-15
            2628            2755     17.0359E-15     14.2683E-15
            2611            2755     17.0359E-15     14.2683E-15
            2612            2755     17.0359E-15     14.2683E-15
            2627            2755     17.0359E-15     14.2683E-15
            2613            2756     16.6318E-15     13.8907E-15
            2628            2756     16.6318E-15     13.8907E-15
            2629            2756     16.6318E-15     13.8907E-15
            2612            2756     16.6318E-15     13.8907E-15
            2613            2757     9.84309E-15     8.61408E-15
            2614            2757     9.84309E-15     8.61408E-15
            2629            2757     9.84309E-15     8.61408E-15
            2630            2757     9.84309E-15     8.61408E-15
            2615            2758     12.9072E-15     12.3209E-15
            2630            2758     12.9072E-15     12.3209E-15
            2614            2758     12.9072E-15     12.3209E-15
            2631            2758     12.9072E-15     12.3209E-15
            2616            2759     19.1287E-15     20.0260E-15
            2615            2759     19.1287E-15     20.0260E-15
            2631            2759     19.1287E-15     20.0260E-15
            2632            2759     19.1287E-15     20.0260E-15
            2633            2760     13.6763E-15     17.3911E-15
            2632            2760     13.6763E-15     17.3911E-15
            2616            2760     13.6763E-15     17.3911E-15
            2617            2760     13.6763E-15     17.3911E-15
            2618            2761     10.6299E-15     11.9408E-15
            2634            2761     10.6299E-15     11.9408E-15
            2617            2761     10.6299E-15     11.9408E-15
            2633            2761     10.6299E-15     11.9408E-15
            2619            2762     13.2098E-15     12.3788E-15
            2634            2762     13.2098E-15     12.3788E-15
            2618            2762     13.2098E-15     12.3788E-15
            2635            2762     13.2098E-15     12.3788E-15
            2635            2763     15.9343E-15     14.5982E-15
            2619            2763     15.9343E-15     14.5982E-15
            2620            2763     15.9343E-15     14.5982E-15
            2636            2763     15.9343E-15     14.5982E-15
            2637            2764     17.0060E-15     15.8481E-15
            2620            2764     17.0060E-15     15.8481E-15
            2636            2764     17.0060E-15     15.8481E-15
            2621            2764     17.0060E-15     15.8481E-15
            2638            2765     15.3231E-15     15.6482E-15
            2621            2765     15.3231E-15     15.6482E-15
            2637            2765     15.3231E-15     15.6482E-15
            2622            2765     15.3231E-15     15.6482E-15
            2623            2766     15.7876E-15     16.1167E-15
            2639            2766     15.7876E-15     16.1167E-15
            2638            2766     15.7876E-15     16.1167E-15
            2622            2766     15.7876E-15     16.1167E-15
            2640            2767     16.8164E-15     16.5421E-15
            2639            2767     16.8164E-15     16.5421E-15
            2623            2767     16.8164E-15     16.5421E-15
            2624            2767     16.8164E-15     16.5421E-15
            3028            3027     40.2874E-03     45.9014E-03
            3027            3027     40.2874E-03     45.9014E-03
            3012            3027     40.2874E-03     45.9014E-03
            3011            3027     40.2874E-03     45.9014E-03
            3029            3028     43.6943E-03     55.1164E-03
            3028            3028     43.6943E-03     55.1164E-03
            3012            3028     43.6943E-03     55.1164E-03
            3013            3028     43.6943E-03     55.1164E-03
            3014            3029     52.0634E-03     66.2061E-03
            3029            3029     52.0634E-03     66.2061E-03
            3013            3029     52.0634E-03     66.2061E-03
            3030            3029     52.0634E-03     66.2061E-03
            3031            3030     63.6148E-03     79.1927E-03
            3014            3030     63.6148E-03     79.1927E-03
            3030            3030     63.6148E-03     79.1927E-03
            3015            3030     63.6148E-03     79.1927E-03
            3016            3031     76.5431E-03     92.8097E-03
            3031            3031     76.5431E-03     92.8097E-03
            3032            3031     76.5431E-03     92.8097E-03
            3015            3031     76.5431E-03     92.8097E-03
            3032            3032     90.1500E-03     106.916E-03
            3033            3032     90.1500E-03     106.916E-03
            3017            3032     90.1500E-03     106.916E-03
            3016            3032     90.1500E-03     106.916E-03
            3034            3033     104.256E-03     121.248E-03
            3018            3033     104.256E-03     121.248E-03
            3017            3033     104.256E-03     121.248E-03
            3033            3033     104.256E-03     121.248E-03
            3018            3034     118.595E-03     135.851E-03
            3035            3034     118.595E-03     135.851E-03
            3019            3034     118.595E-03     135.851E-03
            3034            3034     118.595E-03     135.851E-03
            3036            3035     133.192E-03     150.489E-03
            3019            3035     133.192E-03     150.489E-03
            3020            3035     133.192E-03     150.489E-03
            3035            3035     133.192E-03     150.489E-03
            3020            3036     147.881E-03     165.375E-03
            3036            3036     147.881E-03     165.375E-03
            3021            3036     147.881E-03     165.375E-03
            3037            3036     147.881E-03     165.375E-03
            3038            3037     162.725E-03     180.161E-03
            3037            3037     162.725E-03     180.161E-03
            3022            3037     162.725E-03     180.161E-03
            3021            3037     162.725E-03     180.161E-03
            3039            3038     177.797E-03     195.304E-03
            3023            3038     177.797E-03     195.304E-03
            3022            3038     177.797E-03     195.304E-03
            3038            3038     177.797E-03     195.304E-03
            3023            3039     192.356E-03     210.100E-03
            3040            3039     192.356E-03     210.100E-03
            3039            3039     192.356E-03     210.100E-03
            3024            3039     192.356E-03     210.100E-03
            3025            3040     208.336E-03     225.888E-03
            3040            3040     208.336E-03     225.888E-03
            3024            3040     208.336E-03     225.888E-03
            3041            3040     208.336E-03     225.888E-03
            3041            3041     236.442E-03     251.985E-03
            3026            3041     236.442E-03     251.985E-03
            3025            3041     236.442E-03     251.985E-03
            3042            3041     236.442E-03     251.985E-03
            3027            3042     51.3983E-03     49.8913E-03
            3043            3042     51.3983E-03     49.8913E-03
            3044            3042     51.3983E-03     49.8913E-03
            3028            3042     51.3983E-03     49.8913E-03
            3045            3043     58.4161E-03     54.0164E-03
            3044            3043     58.4161E-03     54.0164E-03
            3029            3043     58.4161E-03     54.0164E-03
            3028            3043     58.4161E-03     54.0164E-03
            3029            3044     68.4012E-03     62.2080E-03
            3030            3044     68.4012E-03     62.2080E-03
            3045            3044     68.4012E-03     62.2080E-03
            3046            3044     68.4012E-03     62.2080E-03
            3030            3045     80.1437E-03     73.1694E-03
            3031            3045     80.1437E-03     73.1694E-03
            3046            3045     80.1437E-03     73.1694E-03
            3047            3045     80.1437E-03     73.1694E-03
            3048            3046     92.9855E-03     85.3440E-03
            3047            3046     92.9855E-03     85.3440E-03
            3031            3046     92.9855E-03     85.3440E-03
            3032            3046     92.9855E-03     85.3440E-03
            3049            3047     106.472E-03     98.3551E-03
            3048            3047     106.472E-03     98.3551E-03
            3032            3047     106.472E-03     98.3551E-03
            3033            3047     106.472E-03     98.3551E-03
            3033            3048     120.336E-03     111.960E-03
            3034            3048     120.336E-03     111.960E-03
            3049            3048     120.336E-03     111.960E-03
            3050            3048     120.336E-03     111.960E-03
            3034            3049     134.531E-03     125.886E-03
            3051            3049     134.531E-03     125.886E-03
            3050            3049     134.531E-03     125.886E-03
            3035            3049     134.531E-03     125.886E-03
            3035            3050     148.846E-03     140.117E-03
            3036            3050     148.846E-03     140.117E-03
            3052            3050     148.846E-03     140.117E-03
            3051            3050     148.846E-03     140.117E-03
            3037            3051     163.377E-03     154.432E-03
            3036            3051     163.377E-03     154.432E-03
            3052            3051     163.377E-03     154.432E-03
            3053            3051     163.377E-03     154.432E-03
            3054            3052     177.808E-03     168.880E-03
            3053            3052     177.808E-03     168.880E-03
            3037            3052     177.808E-03     168.880E-03
            3038            3052     177.808E-03     168.880E-03
            3038            3053     192.394E-03     183.184E-03
            3054            3053     192.394E-03     183.184E-03
            3039            3053     192.394E-03     183.184E-03
            3055            3053     192.394E-03     183.184E-03
            3040            3054     207.018E-03     198.014E-03
            3056            3054     207.018E-03     198.014E-03
            3039            3054     207.018E-03     198.014E-03
            3055            3054     207.018E-03     198.014E-03
            3040            3055     222.598E-03     213.490E-03
            3056            3055     222.598E-03     213.490E-03
            3041            3055     222.598E-03     213.490E-03
            3057            3055     222.598E-03     213.490E-03
            3058            3056     223.079E-03     211.673E-03
            3042            3056     223.079E-03     211.673E-03
            3041            3056     223.079E-03     211.673E-03
            3057            3056     223.079E-03     211.673E-03
            3044            3057     43.8548E-03     45.5973E-03
            3060            3057     43.8548E-03     45.5973E-03
            3059            3057     43.8548E-03     45.5973E-03
            3043            3057     43.8548E-03     45.5973E-03
            3045            3058     50.7697E-03     48.8773E-03
            3061            3058     50.7697E-03     48.8773E-03
            3044            3058     50.7697E-03     48.8773E-03
            3060            3058     50.7697E-03     48.8773E-03
            3045            3059     57.3201E-03     54.1677E-03
            3061            3059     57.3201E-03     54.1677E-03
            3046            3059     57.3201E-03     54.1677E-03
            3062            3059     57.3201E-03     54.1677E-03
            3046            3060     64.9376E-03     61.6674E-03
            3063            3060     64.9376E-03     61.6674E-03
            3047            3060     64.9376E-03     61.6674E-03
            3062            3060     64.9376E-03     61.6674E-03
            3063            3061     73.4196E-03     70.1437E-03
            3047            3061     73.4196E-03     70.1437E-03
            3064            3061     73.4196E-03     70.1437E-03
            3048            3061     73.4196E-03     70.1437E-03
            3049            3062     82.6248E-03     79.3654E-03
            3064            3062     82.6248E-03     79.3654E-03
            3065            3062     82.6248E-03     79.3654E-03
            3048            3062     82.6248E-03     79.3654E-03
            3049            3063     92.2192E-03     89.0247E-03
            3065            3063     92.2192E-03     89.0247E-03
            3066            3063     92.2192E-03     89.0247E-03
            3050            3063     92.2192E-03     89.0247E-03
            3050            3064     102.173E-03     98.9411E-03
            3066            3064     102.173E-03     98.9411E-03
            3051            3064     102.173E-03     98.9411E-03
            3067            3064     102.173E-03     98.9411E-03
            3068            3065     112.269E-03     109.101E-03
            3052            3065     112.269E-03     109.101E-03
            3051            3065     112.269E-03     109.101E-03
            3067            3065     112.269E-03     109.101E-03
            3069            3066     122.520E-03     119.286E-03
            3068            3066     122.520E-03     119.286E-03
            3053            3066     122.520E-03     119.286E-03
            3052            3066     122.520E-03     119.286E-03
            3070            3067     133.033E-03     129.843E-03
            3053            3067     133.033E-03     129.843E-03
            3054            3067     133.033E-03     129.843E-03
            3069            3067     133.033E-03     129.843E-03
            3054            3068     144.003E-03     140.787E-03
            3055            3068     144.003E-03     140.787E-03
            3071            3068     144.003E-03     140.787E-03
            3070            3068     144.003E-03     140.787E-03
            3072            3069     157.955E-03     154.461E-03
            3071            3069     157.955E-03     154.461E-03
            3055            3069     157.955E-03     154.461E-03
            3056            3069     157.955E-03     154.461E-03
            3057            3070     174.191E-03     172.049E-03
            3072            3070     174.191E-03     172.049E-03
            3056            3070     174.191E-03     172.049E-03
            3073            3070     174.191E-03     172.049E-03
            3058            3071     192.948E-03     197.038E-03
            3074            3071     192.948E-03     197.038E-03
            3073            3071     192.948E-03     197.038E-03
            3057            3071     192.948E-03     197.038E-03
            3075            3072     37.0568E-03     41.3425E-03
            3076            3072     37.0568E-03     41.3425E-03
            3060            3072     37.0568E-03     41.3425E-03
            3059            3072     37.0568E-03     41.3425E-03
            3077            3073     38.2224E-03     44.0685E-03
            3061            3073     38.2224E-03     44.0685E-03
            3076            3073     38.2224E-03     44.0685E-03
            3060            3073     38.2224E-03     44.0685E-03
            3061            3074     40.7159E-03     48.0382E-03
            3077            3074     40.7159E-03     48.0382E-03
            3078            3074     40.7159E-03     48.0382E-03
            3062            3074     40.7159E-03     48.0382E-03
            3062            3075     44.0633E-03     53.0739E-03
            3079            3075     44.0633E-03     53.0739E-03
            3078            3075     44.0633E-03     53.0739E-03
            3063            3075     44.0633E-03     53.0739E-03
            3064            3076     48.2465E-03     58.6351E-03
            3079            3076     48.2465E-03     58.6351E-03
            3080            3076     48.2465E-03     58.6351E-03
            3063            3076     48.2465E-03     58.6351E-03
            3080            3077     53.1759E-03     64.5353E-03
            3081            3077     53.1759E-03     64.5353E-03
            3065            3077     53.1759E-03     64.5353E-03
            3064            3077     53.1759E-03     64.5353E-03
            3065            3078     58.6377E-03     70.6449E-03
            3081            3078     58.6377E-03     70.6449E-03
            3082            3078     58.6377E-03     70.6449E-03
            3066            3078     58.6377E-03     70.6449E-03
            3082            3079     64.4590E-03     76.9607E-03
            3067            3079     64.4590E-03     76.9607E-03
            3066            3079     64.4590E-03     76.9607E-03
            3083            3079     64.4590E-03     76.9607E-03
            3067            3080     70.4817E-03     83.3190E-03
            3068            3080     70.4817E-03     83.3190E-03
            3083            3080     70.4817E-03     83.3190E-03
            3084            3080     70.4817E-03     83.3190E-03
            3068            3081     76.7958E-03     89.9178E-03
            3084            3081     76.7958E-03     89.9178E-03
            3085            3081     76.7958E-03     89.9178E-03
            3069            3081     76.7958E-03     89.9178E-03
            3085            3082     83.3665E-03     96.7577E-03
            3086            3082     83.3665E-03     96.7577E-03
            3069            3082     83.3665E-03     96.7577E-03
            3070            3082     83.3665E-03     96.7577E-03
            3071            3083     91.7046E-03     105.227E-03
            3086            3083     91.7046E-03     105.227E-03
            3070            3083     91.7046E-03     105.227E-03
            3087            3083     91.7046E-03     105.227E-03
            3088            3084     103.210E-03     117.027E-03
            3071            3084     103.210E-03     117.027E-03
            3072            3084     103.210E-03     117.027E-03
            3087            3084     103.210E-03     117.027E-03
            3073            3085     125.994E-03     140.037E-03
            3072            3085     125.994E-03     140.037E-03
            3088            3085     125.994E-03     140.037E-03
            3089            3085     125.994E-03     140.037E-03
            3073            3086     176.907E-03     188.792E-03
            3090            3086     176.907E-03     188.792E-03
            3089            3086     176.907E-03     188.792E-03
            3074            3086     176.907E-03     188.792E-03
            3075            3087     44.4328E-03     42.0201E-03
            3076            3087     44.4328E-03     42.0201E-03
            3092            3087     44.4328E-03     42.0201E-03
            3091            3087     44.4328E-03     42.0201E-03
            3077            3088     44.1110E-03     46.1402E-03
            3093            3088     44.1110E-03     46.1402E-03
            3092            3088     44.1110E-03     46.1402E-03
            3076            3088     44.1110E-03     46.1402E-03
            3077            3089     45.9360E-03     50.0600E-03
            3094            3089     45.9360E-03     50.0600E-03
            3078            3089     45.9360E-03     50.0600E-03
            3093            3089     45.9360E-03     50.0600E-03
            3094            3090     49.1890E-03     54.6173E-03
            3095            3090     49.1890E-03     54.6173E-03
            3078            3090     49.1890E-03     54.6173E-03
            3079            3090     49.1890E-03     54.6173E-03
            3095            3091     53.2797E-03     59.7701E-03
            3079            3091     53.2797E-03     59.7701E-03
            3096            3091     53.2797E-03     59.7701E-03
            3080            3091     53.2797E-03     59.7701E-03
            3081            3092     58.1843E-03     65.3024E-03
            3096            3092     58.1843E-03     65.3024E-03
            3080            3092     58.1843E-03     65.3024E-03
            3097            3092     58.1843E-03     65.3024E-03
            3097            3093     63.6642E-03     71.2707E-03
            3098            3093     63.6642E-03     71.2707E-03
            3082            3093     63.6642E-03     71.2707E-03
            3081            3093     63.6642E-03     71.2707E-03
            3099            3094     69.5449E-03     77.5072E-03
            3098            3094     69.5449E-03     77.5072E-03
            3083            3094     69.5449E-03     77.5072E-03
            3082            3094     69.5449E-03     77.5072E-03
            3099            3095     75.7879E-03     84.0386E-03
            3100            3095     75.7879E-03     84.0386E-03
            3083            3095     75.7879E-03     84.0386E-03
            3084            3095     75.7879E-03     84.0386E-03
            3100            3096     82.2300E-03     90.7792E-03
            3084            3096     82.2300E-03     90.7792E-03
            3101            3096     82.2300E-03     90.7792E-03
            3085            3096     82.2300E-03     90.7792E-03
            3085            3097     89.1437E-03     97.9588E-03
            3086            3097     89.1437E-03     97.9588E-03
            3102            3097     89.1437E-03     97.9588E-03
            3101            3097     89.1437E-03     97.9588E-03
            3103            3098     96.5712E-03     105.847E-03
            3086            3098     96.5712E-03     105.847E-03
            3102            3098     96.5712E-03     105.847E-03
            3087            3098     96.5712E-03     105.847E-03
            3087            3099     106.908E-03     115.861E-03
            3103            3099     106.908E-03     115.861E-03
            3104            3099     106.908E-03     115.861E-03
            3088            3099     106.908E-03     115.861E-03
            3105            3100     127.937E-03     134.121E-03
            3088            3100     127.937E-03     134.121E-03
            3089            3100     127.937E-03     134.121E-03
            3104            3100     127.937E-03     134.121E-03
            3106            3101     161.711E-03     162.669E-03
            3105            3101     161.711E-03     162.669E-03
            3090            3101     161.711E-03     162.669E-03
            3089            3101     161.711E-03     162.669E-03
            3107            3102     49.3211E-03     44.6812E-03
            3091            3102     49.3211E-03     44.6812E-03
            3092            3102     49.3211E-03     44.6812E-03
            3108            3102     49.3211E-03     44.6812E-03
            3108            3103     49.7465E-03     48.0185E-03
            3109            3103     49.7465E-03     48.0185E-03
            3092            3103     49.7465E-03     48.0185E-03
            3093            3103     49.7465E-03     48.0185E-03
            3110            3104     51.0522E-03     52.3353E-03
            3109            3104     51.0522E-03     52.3353E-03
            3093            3104     51.0522E-03     52.3353E-03
            3094            3104     51.0522E-03     52.3353E-03
            3111            3105     53.9044E-03     56.4591E-03
            3110            3105     53.9044E-03     56.4591E-03
            3094            3105     53.9044E-03     56.4591E-03
            3095            3105     53.9044E-03     56.4591E-03
            3112            3106     58.0335E-03     60.9485E-03
            3111            3106     58.0335E-03     60.9485E-03
            3095            3106     58.0335E-03     60.9485E-03
            3096            3106     58.0335E-03     60.9485E-03
            3112            3107     62.8810E-03     66.1170E-03
            3096            3107     62.8810E-03     66.1170E-03
            3113            3107     62.8810E-03     66.1170E-03
            3097            3107     62.8810E-03     66.1170E-03
            3097            3108     68.3072E-03     71.7773E-03
            3113            3108     68.3072E-03     71.7773E-03
            3098            3108     68.3072E-03     71.7773E-03
            3114            3108     68.3072E-03     71.7773E-03
            3114            3109     74.2549E-03     77.9158E-03
            3099            3109     74.2549E-03     77.9158E-03
            3115            3109     74.2549E-03     77.9158E-03
            3098            3109     74.2549E-03     77.9158E-03
            3099            3110     80.6231E-03     84.4839E-03
            3115            3110     80.6231E-03     84.4839E-03
            3116            3110     80.6231E-03     84.4839E-03
            3100            3110     80.6231E-03     84.4839E-03
            3101            3111     87.3525E-03     91.3968E-03
            3116            3111     87.3525E-03     91.3968E-03
            3100            3111     87.3525E-03     91.3968E-03
            3117            3111     87.3525E-03     91.3968E-03
            3117            3112     94.3476E-03     98.6909E-03
            3102            3112     94.3476E-03     98.6909E-03
            3118            3112     94.3476E-03     98.6909E-03
            3101            3112     94.3476E-03     98.6909E-03
            3102            3113     100.991E-03     105.779E-03
            3118            3113     100.991E-03     105.779E-03
            3119            3113     100.991E-03     105.779E-03
            3103            3113     100.991E-03     105.779E-03
            3103            3114     108.067E-03     112.901E-03
            3104            3114     108.067E-03     112.901E-03
            3120            3114     108.067E-03     112.901E-03
            3119            3114     108.067E-03     112.901E-03
            3121            3115     116.759E-03     120.435E-03
            3104            3115     116.759E-03     120.435E-03
            3105            3115     116.759E-03     120.435E-03
            3120            3115     116.759E-03     120.435E-03
            3106            3116     133.107E-03     136.489E-03
            3122            3116     133.107E-03     136.489E-03
            3121            3116     133.107E-03     136.489E-03
            3105            3116     133.107E-03     136.489E-03
            3124            3117     53.3867E-03     48.7159E-03
            3107            3117     53.3867E-03     48.7159E-03
            3123            3117     53.3867E-03     48.7159E-03
            3108            3117     53.3867E-03     48.7159E-03
            3124            3118     53.8480E-03     51.9462E-03
            3108            3118     53.8480E-03     51.9462E-03
            3109            3118     53.8480E-03     51.9462E-03
            3125            3118     53.8480E-03     51.9462E-03
            3110            3119     55.3583E-03     55.1429E-03
            3125            3119     55.3583E-03     55.1429E-03
            3109            3119     55.3583E-03     55.1429E-03
            3126            3119     55.3583E-03     55.1429E-03
            3110            3120     58.4667E-03     58.3403E-03
            3127            3120     58.4667E-03     58.3403E-03
            3111            3120     58.4667E-03     58.3403E-03
            3126            3120     58.4667E-03     58.3403E-03
            3128            3121     62.5564E-03     62.2551E-03
            3127            3121     62.5564E-03     62.2551E-03
            3111            3121     62.5564E-03     62.2551E-03
            3112            3121     62.5564E-03     62.2551E-03
            3112            3122     67.2496E-03     66.8659E-03
            3128            3122     67.2496E-03     66.8659E-03
            3113            3122     67.2496E-03     66.8659E-03
            3129            3122     67.2496E-03     66.8659E-03
            3114            3123     72.5085E-03     72.0713E-03
            3129            3123     72.5085E-03     72.0713E-03
            3130            3123     72.5085E-03     72.0713E-03
            3113            3123     72.5085E-03     72.0713E-03
            3114            3124     78.2716E-03     77.8202E-03
            3130            3124     78.2716E-03     77.8202E-03
            3115            3124     78.2716E-03     77.8202E-03
            3131            3124     78.2716E-03     77.8202E-03
            3115            3125     84.4716E-03     84.0156E-03
            3132            3125     84.4716E-03     84.0156E-03
            3116            3125     84.4716E-03     84.0156E-03
            3131            3125     84.4716E-03     84.0156E-03
            3133            3126     91.1028E-03     90.6705E-03
            3116            3126     91.1028E-03     90.6705E-03
            3117            3126     91.1028E-03     90.6705E-03
            3132            3126     91.1028E-03     90.6705E-03
            3117            3127     97.4740E-03     97.2229E-03
            3133            3127     97.4740E-03     97.2229E-03
            3118            3127     97.4740E-03     97.2229E-03
            3134            3127     97.4740E-03     97.2229E-03
            3118            3128     103.400E-03     103.273E-03
            3134            3128     103.400E-03     103.273E-03
            3119            3128     103.400E-03     103.273E-03
            3135            3128     103.400E-03     103.273E-03
            3119            3129     104.638E-03     105.980E-03
            3120            3129     104.638E-03     105.980E-03
            3135            3129     104.638E-03     105.980E-03
            3136            3129     104.638E-03     105.980E-03
            3120            3130     99.8592E-03     102.969E-03
            3137            3130     99.8592E-03     102.969E-03
            3121            3130     99.8592E-03     102.969E-03
            3136            3130     99.8592E-03     102.969E-03
            3137            3131     106.378E-03     106.586E-03
            3138            3131     106.378E-03     106.586E-03
            3122            3131     106.378E-03     106.586E-03
            3121            3131     106.378E-03     106.586E-03
            3124            3132     56.5999E-03     55.2848E-03
            3140            3132     56.5999E-03     55.2848E-03
            3123            3132     56.5999E-03     55.2848E-03
            3139            3132     56.5999E-03     55.2848E-03
            3140            3133     56.6429E-03     57.1144E-03
            3124            3133     56.6429E-03     57.1144E-03
            3125            3133     56.6429E-03     57.1144E-03
            3141            3133     56.6429E-03     57.1144E-03
            3126            3134     59.3882E-03     58.0939E-03
            3141            3134     59.3882E-03     58.0939E-03
            3125            3134     59.3882E-03     58.0939E-03
            3142            3134     59.3882E-03     58.0939E-03
            3127            3135     63.0319E-03     60.3788E-03
            3126            3135     63.0319E-03     60.3788E-03
            3143            3135     63.0319E-03     60.3788E-03
            3142            3135     63.0319E-03     60.3788E-03
            3143            3136     66.9505E-03     63.7262E-03
            3127            3136     66.9505E-03     63.7262E-03
            3128            3136     66.9505E-03     63.7262E-03
            3144            3136     66.9505E-03     63.7262E-03
            3128            3137     71.4071E-03     67.6711E-03
            3144            3137     71.4071E-03     67.6711E-03
            3129            3137     71.4071E-03     67.6711E-03
            3145            3137     71.4071E-03     67.6711E-03
            3145            3138     76.2941E-03     72.1977E-03
            3129            3138     76.2941E-03     72.1977E-03
            3130            3138     76.2941E-03     72.1977E-03
            3146            3138     76.2941E-03     72.1977E-03
            3131            3139     81.5506E-03     77.1495E-03
            3146            3139     81.5506E-03     77.1495E-03
            3147            3139     81.5506E-03     77.1495E-03
            3130            3139     81.5506E-03     77.1495E-03
            3132            3140     87.1587E-03     82.4761E-03
            3147            3140     87.1587E-03     82.4761E-03
            3131            3140     87.1587E-03     82.4761E-03
            3148            3140     87.1587E-03     82.4761E-03
            3149            3141     92.7904E-03     87.8851E-03
            3133            3141     92.7904E-03     87.8851E-03
            3148            3141     92.7904E-03     87.8851E-03
            3132            3141     92.7904E-03     87.8851E-03
            3134            3142     98.2137E-03     93.0464E-03
            3149            3142     98.2137E-03     93.0464E-03
            3133            3142     98.2137E-03     93.0464E-03
            3150            3142     98.2137E-03     93.0464E-03
            3135            3143     101.541E-03     96.4672E-03
            3150            3143     101.541E-03     96.4672E-03
            3151            3143     101.541E-03     96.4672E-03
            3134            3143     101.541E-03     96.4672E-03
            3135            3144     100.218E-03     95.7727E-03
            3151            3144     100.218E-03     95.7727E-03
            3152            3144     100.218E-03     95.7727E-03
            3136            3144     100.218E-03     95.7727E-03
            3136            3145     86.8587E-03     84.8062E-03
            3153            3145     86.8587E-03     84.8062E-03
            3137            3145     86.8587E-03     84.8062E-03
            3152            3145     86.8587E-03     84.8062E-03
            3138            3146     79.5598E-03     78.5179E-03
            3153            3146     79.5598E-03     78.5179E-03
            3137            3146     79.5598E-03     78.5179E-03
            3154            3146     79.5598E-03     78.5179E-03
            3139            3147     57.5625E-03     62.3790E-03
            3140            3147     57.5625E-03     62.3790E-03
            3155            3147     57.5625E-03     62.3790E-03
            3156            3147     57.5625E-03     62.3790E-03
            3157            3148     60.5583E-03     60.5826E-03
            3140            3148     60.5583E-03     60.5826E-03
            3156            3148     60.5583E-03     60.5826E-03
            3141            3148     60.5583E-03     60.5826E-03
            3157            3149     64.1109E-03     60.8813E-03
            3141            3149     64.1109E-03     60.8813E-03
            3158            3149     64.1109E-03     60.8813E-03
            3142            3149     64.1109E-03     60.8813E-03
            3158            3150     67.6142E-03     62.8258E-03
            3142            3150     67.6142E-03     62.8258E-03
            3143            3150     67.6142E-03     62.8258E-03
            3159            3150     67.6142E-03     62.8258E-03
            3144            3151     71.3912E-03     65.5184E-03
            3159            3151     71.3912E-03     65.5184E-03
            3143            3151     71.3912E-03     65.5184E-03
            3160            3151     71.3912E-03     65.5184E-03
            3145            3152     75.5287E-03     68.8060E-03
            3160            3152     75.5287E-03     68.8060E-03
            3161            3152     75.5287E-03     68.8060E-03
            3144            3152     75.5287E-03     68.8060E-03
            3145            3153     79.9053E-03     72.4664E-03
            3161            3153     79.9053E-03     72.4664E-03
            3162            3153     79.9053E-03     72.4664E-03
            3146            3153     79.9053E-03     72.4664E-03
            3146            3154     84.4716E-03     76.3638E-03
            3162            3154     84.4716E-03     76.3638E-03
            3163            3154     84.4716E-03     76.3638E-03
            3147            3154     84.4716E-03     76.3638E-03
            3163            3155     88.9574E-03     80.2845E-03
            3147            3155     88.9574E-03     80.2845E-03
            3148            3155     88.9574E-03     80.2845E-03
            3164            3155     88.9574E-03     80.2845E-03
            3164            3156     93.1172E-03     83.7904E-03
            3148            3156     93.1172E-03     83.7904E-03
            3149            3156     93.1172E-03     83.7904E-03
            3165            3156     93.1172E-03     83.7904E-03
            3149            3157     96.1975E-03     86.2839E-03
            3165            3157     96.1975E-03     86.2839E-03
            3166            3157     96.1975E-03     86.2839E-03
            3150            3157     96.1975E-03     86.2839E-03
            3167            3158     96.7691E-03     86.1559E-03
            3166            3158     96.7691E-03     86.1559E-03
            3150            3158     96.7691E-03     86.1559E-03
            3151            3158     96.7691E-03     86.1559E-03
            3152            3159     92.8148E-03     81.2202E-03
            3167            3159     92.8148E-03     81.2202E-03
            3168            3159     92.8148E-03     81.2202E-03
            3151            3159     92.8148E-03     81.2202E-03
            3153            3160     78.1555E-03     66.5764E-03
            3168            3160     78.1555E-03     66.5764E-03
            3152            3160     78.1555E-03     66.5764E-03
            3169            3160     78.1555E-03     66.5764E-03
            3169            3161     60.9657E-03     58.4732E-03
            3170            3161     60.9657E-03     58.4732E-03
            3153            3161     60.9657E-03     58.4732E-03
            3154            3161     60.9657E-03     58.4732E-03
            3172            3162     30.8873E-03     34.3198E-03
            3171            3162     30.8873E-03     34.3198E-03
            3155            3162     30.8873E-03     34.3198E-03
            3156            3162     30.8873E-03     34.3198E-03
            3157            3163     33.7442E-03     33.2022E-03
            3173            3163     33.7442E-03     33.2022E-03
            3156            3163     33.7442E-03     33.2022E-03
            3172            3163     33.7442E-03     33.2022E-03
            3174            3164     35.4982E-03     33.5580E-03
            3158            3164     35.4982E-03     33.5580E-03
            3173            3164     35.4982E-03     33.5580E-03
            3157            3164     35.4982E-03     33.5580E-03
            3158            3165     37.4072E-03     34.7598E-03
            3174            3165     37.4072E-03     34.7598E-03
            3159            3165     37.4072E-03     34.7598E-03
            3175            3165     37.4072E-03     34.7598E-03
            3176            3166     39.4830E-03     36.1792E-03
            3175            3166     39.4830E-03     36.1792E-03
            3159            3166     39.4830E-03     36.1792E-03
            3160            3166     39.4830E-03     36.1792E-03
            3161            3167     41.7520E-03     37.9209E-03
            3160            3167     41.7520E-03     37.9209E-03
            3177            3167     41.7520E-03     37.9209E-03
            3176            3167     41.7520E-03     37.9209E-03
            3162            3168     44.1118E-03     39.8293E-03
            3161            3168     44.1118E-03     39.8293E-03
            3177            3168     44.1118E-03     39.8293E-03
            3178            3168     44.1118E-03     39.8293E-03
            3179            3169     46.5094E-03     41.7896E-03
            3178            3169     46.5094E-03     41.7896E-03
            3162            3169     46.5094E-03     41.7896E-03
            3163            3169     46.5094E-03     41.7896E-03
            3163            3170     48.7726E-03     43.6702E-03
            3164            3170     48.7726E-03     43.6702E-03
            3180            3170     48.7726E-03     43.6702E-03
            3179            3170     48.7726E-03     43.6702E-03
            3165            3171     50.7489E-03     45.2380E-03
            3164            3171     50.7489E-03     45.2380E-03
            3180            3171     50.7489E-03     45.2380E-03
            3181            3171     50.7489E-03     45.2380E-03
            3166            3172     51.8703E-03     45.9298E-03
            3165            3172     51.8703E-03     45.9298E-03
            3182            3172     51.8703E-03     45.9298E-03
            3181            3172     51.8703E-03     45.9298E-03
            3167            3173     51.9047E-03     45.3495E-03
            3182            3173     51.9047E-03     45.3495E-03
            3166            3173     51.9047E-03     45.3495E-03
            3183            3173     51.9047E-03     45.3495E-03
            3167            3174     49.0564E-03     41.7235E-03
            3183            3174     49.0564E-03     41.7235E-03
            3168            3174     49.0564E-03     41.7235E-03
            3184            3174     49.0564E-03     41.7235E-03
            3168            3175     43.0277E-03     34.4466E-03
            3169            3175     43.0277E-03     34.4466E-03
            3184            3175     43.0277E-03     34.4466E-03
            3185            3175     43.0277E-03     34.4466E-03
            3186            3176     33.6458E-03     32.0724E-03
            3170            3176     33.6458E-03     32.0724E-03
            3185            3176     33.6458E-03     32.0724E-03
            3169            3176     33.6458E-03     32.0724E-03


  Minimum                            6.05830E-15     7.48425E-15
      At Element                            2634            2312
            Node                             573            2489

  Maximum                            408.144E-03     426.208E-03
      At Element                            1073            1768
            Node                             317              16

           Total                         390.070         402.635


Field Output reported at element nodes for region: CRJ700-1.Region_4
   Computation algorithm: EXTRAPOLATE_COMPUTE_AVERAGE
   Averaged at nodes
   Averaging regions: ODB_REGIONS

   Element Label      Node Label         S.Mises         S.Mises
                                          @Loc 1          @Loc 2
-----------------------------------------------------------------
            1089               1     786.561E-06     884.932E-06
             545               1     786.561E-06     884.932E-06
            1688               4     10.7178E-03     16.7203E-03
            1617               4     10.7178E-03     16.7203E-03
            1074               5     2.58996E-03     2.66232E-03
             560               5     2.58996E-03     2.66232E-03
             640               6     11.2119E-15     11.4195E-15
             625               7     28.9810E-15     25.1426E-15
            1673              11     348.810E-03     362.020E-03
            1602              11     348.810E-03     362.020E-03
            2656              18     23.7091E-03     32.8168E-03
            1752              18     23.7091E-03     32.8168E-03
            1737              20     397.208E-03     426.208E-03
            2641              20     397.208E-03     426.208E-03
            2720              22     41.3769E-03     43.7523E-03
            2384              22     41.3769E-03     43.7523E-03
            2369              23     265.970E-03     278.545E-03
            2705              23     265.970E-03     278.545E-03
            2529              26     6.18038E-03     6.35564E-03
            2915              26     6.18038E-03     6.35564E-03
            2544              30     1.91687E-03     2.15617E-03
            2930              30     1.91687E-03     2.15617E-03
            3010              32     9.42208E-15     23.0828E-15
            2995              34     18.9719E-15     24.8768E-15
            1601              99     8.99282E-03     19.0836E-03
            1617              99     8.99282E-03     19.0836E-03
            1585             100     9.75657E-03     20.2307E-03
            1601             100     9.75657E-03     20.2307E-03
            1585             101     21.5759E-03     23.1903E-03
            1569             101     21.5759E-03     23.1903E-03
            1553             102     33.7958E-03     36.7338E-03
            1569             102     33.7958E-03     36.7338E-03
            1537             103     42.6511E-03     52.0821E-03
            1553             103     42.6511E-03     52.0821E-03
            1537             104     27.9574E-03     35.4815E-03
            1521             104     27.9574E-03     35.4815E-03
            1505             105     6.71389E-03     14.8351E-03
            1521             105     6.71389E-03     14.8351E-03
            1489             106     8.55539E-03     14.4823E-03
            1505             106     8.55539E-03     14.4823E-03
            1473             107     17.3127E-03     19.4132E-03
            1489             107     17.3127E-03     19.4132E-03
            1457             108     26.2508E-03     26.3194E-03
            1473             108     26.2508E-03     26.3194E-03
            1457             109     35.8762E-03     37.7518E-03
            1441             109     35.8762E-03     37.7518E-03
            1441             110     42.1217E-03     50.4868E-03
            1425             110     42.1217E-03     50.4868E-03
            1425             111     23.8528E-03     31.3181E-03
            1409             111     23.8528E-03     31.3181E-03
            1409             112     5.62070E-03     9.75433E-03
            1393             112     5.62070E-03     9.75433E-03
            1393             113     11.4154E-03     12.3640E-03
            1377             113     11.4154E-03     12.3640E-03
            1361             114     18.1601E-03     18.0999E-03
            1377             114     18.1601E-03     18.0999E-03
            1345             115     24.7015E-03     23.5656E-03
            1361             115     24.7015E-03     23.5656E-03
            1345             116     31.6203E-03     32.1417E-03
            1329             116     31.6203E-03     32.1417E-03
            1329             117     35.5614E-03     41.9662E-03
            1313             117     35.5614E-03     41.9662E-03
            1313             118     21.7529E-03     27.7059E-03
            1297             118     21.7529E-03     27.7059E-03
            1281             119     10.6749E-03     11.3578E-03
            1297             119     10.6749E-03     11.3578E-03
            1281             120     16.1571E-03     14.6648E-03
            1265             120     16.1571E-03     14.6648E-03
            1249             121     20.6278E-03     18.2778E-03
            1265             121     20.6278E-03     18.2778E-03
            1249             122     25.1743E-03     24.0874E-03
            1233             122     25.1743E-03     24.0874E-03
            1233             123     27.2180E-03     31.0370E-03
            1217             123     27.2180E-03     31.0370E-03
            1217             124     20.0446E-03     24.5405E-03
            1201             124     20.0446E-03     24.5405E-03
            1185             125     15.0998E-03     16.4607E-03
            1201             125     15.0998E-03     16.4607E-03
            1185             126     18.5535E-03     16.3359E-03
            1169             126     18.5535E-03     16.3359E-03
            1153             127     20.2674E-03     18.0030E-03
            1169             127     20.2674E-03     18.0030E-03
            1137             128     21.9847E-03     19.5692E-03
            1153             128     21.9847E-03     19.5692E-03
            1137             129     23.8199E-03     22.2627E-03
            1121             129     23.8199E-03     22.2627E-03
            1121             130     23.4170E-03     26.4584E-03
            1105             130     23.4170E-03     26.4584E-03
            1105             131     11.9841E-03     14.5790E-03
            1089             131     11.9841E-03     14.5790E-03
             546             132     800.446E-06     901.251E-06
            1088             132     800.446E-06     901.251E-06
             545             132     800.446E-06     901.251E-06
            1089             132     800.446E-06     901.251E-06
             546             133     842.834E-06     946.741E-06
            1087             133     842.834E-06     946.741E-06
             547             133     842.834E-06     946.741E-06
            1088             133     842.834E-06     946.741E-06
            1087             134     911.844E-06     1.01581E-03
             547             134     911.844E-06     1.01581E-03
            1086             134     911.844E-06     1.01581E-03
             548             134     911.844E-06     1.01581E-03
            1086             135     1.00209E-03     1.10411E-03
             549             135     1.00209E-03     1.10411E-03
            1085             135     1.00209E-03     1.10411E-03
             548             135     1.00209E-03     1.10411E-03
            1085             136     1.10845E-03     1.20746E-03
            1084             136     1.10845E-03     1.20746E-03
             549             136     1.10845E-03     1.20746E-03
             550             136     1.10845E-03     1.20746E-03
             551             137     1.22674E-03     1.32234E-03
             550             137     1.22674E-03     1.32234E-03
            1083             137     1.22674E-03     1.32234E-03
            1084             137     1.22674E-03     1.32234E-03
             551             138     1.35385E-03     1.44602E-03
            1082             138     1.35385E-03     1.44602E-03
             552             138     1.35385E-03     1.44602E-03
            1083             138     1.35385E-03     1.44602E-03
            1082             139     1.48750E-03     1.57642E-03
            1081             139     1.48750E-03     1.57642E-03
             552             139     1.48750E-03     1.57642E-03
             553             139     1.48750E-03     1.57642E-03
             554             140     1.62608E-03     1.71200E-03
            1080             140     1.62608E-03     1.71200E-03
            1081             140     1.62608E-03     1.71200E-03
             553             140     1.62608E-03     1.71200E-03
             555             141     1.76842E-03     1.85161E-03
            1079             141     1.76842E-03     1.85161E-03
            1080             141     1.76842E-03     1.85161E-03
             554             141     1.76842E-03     1.85161E-03
            1079             142     1.91368E-03     1.99442E-03
            1078             142     1.91368E-03     1.99442E-03
             556             142     1.91368E-03     1.99442E-03
             555             142     1.91368E-03     1.99442E-03
             556             143     2.06124E-03     2.13977E-03
             557             143     2.06124E-03     2.13977E-03
            1078             143     2.06124E-03     2.13977E-03
            1077             143     2.06124E-03     2.13977E-03
            1076             144     2.21064E-03     2.28718E-03
            1077             144     2.21064E-03     2.28718E-03
             557             144     2.21064E-03     2.28718E-03
             558             144     2.21064E-03     2.28718E-03
             558             145     2.36153E-03     2.43627E-03
             559             145     2.36153E-03     2.43627E-03
            1076             145     2.36153E-03     2.43627E-03
            1075             145     2.36153E-03     2.43627E-03
             559             146     2.51363E-03     2.58676E-03
            1075             146     2.51363E-03     2.58676E-03
             560             146     2.51363E-03     2.58676E-03
            1074             146     2.51363E-03     2.58676E-03
             576             147     12.1773E-15     12.5435E-15
             560             147     12.1773E-15     12.5435E-15
             592             148     11.2882E-15     11.2746E-15
             576             148     11.2882E-15     11.2746E-15
             608             149     10.0020E-15     8.34781E-15
             592             149     10.0020E-15     8.34781E-15
             624             150     11.3886E-15     8.45731E-15
             608             150     11.3886E-15     8.45731E-15
             624             151     12.4475E-15     10.7523E-15
             640             151     12.4475E-15     10.7523E-15
             640             152     7.95705E-15     8.58644E-15
             639             152     7.95705E-15     8.58644E-15
             639             153     16.2819E-15     17.1048E-15
             638             153     16.2819E-15     17.1048E-15
             638             154     21.6018E-15     21.7357E-15
             637             154     21.6018E-15     21.7357E-15
             636             155     25.1980E-15     25.6755E-15
             637             155     25.1980E-15     25.6755E-15
             636             156     25.5733E-15     26.1207E-15
             635             156     25.5733E-15     26.1207E-15
             635             157     23.8543E-15     23.6079E-15
             634             157     23.8543E-15     23.6079E-15
             634             158     28.2900E-15     27.1571E-15
             633             158     28.2900E-15     27.1571E-15
             633             159     17.8417E-15     16.3784E-15
             632             159     17.8417E-15     16.3784E-15
             631             160     8.80083E-15     7.88923E-15
             632             160     8.80083E-15     7.88923E-15
             631             161     6.02238E-15     5.32764E-15
             630             161     6.02238E-15     5.32764E-15
             629             162     7.58445E-15     6.31908E-15
             630             162     7.58445E-15     6.31908E-15
             628             163     14.2466E-15     13.7995E-15
             629             163     14.2466E-15     13.7995E-15
             627             164     13.0585E-15     14.5875E-15
             628             164     13.0585E-15     14.5875E-15
             627             165     10.9960E-15     13.9600E-15
             626             165     10.9960E-15     13.9600E-15
             625             166     21.6712E-15     21.7391E-15
             626             166     21.6712E-15     21.7391E-15
             625             167     17.1894E-15     19.6878E-15
             609             167     17.1894E-15     19.6878E-15
             609             168     9.07393E-15     14.3625E-15
             593             168     9.07393E-15     14.3625E-15
             577             169     11.4453E-15     10.5609E-15
             593             169     11.4453E-15     10.5609E-15
             561             170     24.4629E-15     22.1563E-15
             577             170     24.4629E-15     22.1563E-15
             561             171     25.2192E-15     21.7424E-15
             545             171     25.2192E-15     21.7424E-15
            1074             194     11.6788E-03     14.1832E-03
            1090             194     11.6788E-03     14.1832E-03
            1090             195     23.3209E-03     25.6713E-03
            1106             195     23.3209E-03     25.6713E-03
            1106             196     35.2947E-03     34.4736E-03
            1122             196     35.2947E-03     34.4736E-03
            1122             197     48.7494E-03     47.5517E-03
            1138             197     48.7494E-03     47.5517E-03
            1154             198     60.7914E-03     62.4919E-03
            1138             198     60.7914E-03     62.4919E-03
            1154             199     75.8975E-03     75.0717E-03
            1170             199     75.8975E-03     75.0717E-03
            1186             200     88.6885E-03     92.5744E-03
            1170             200     88.6885E-03     92.5744E-03
            1186             201     84.4634E-03     87.3641E-03
            1202             201     84.4634E-03     87.3641E-03
            1218             202     85.1365E-03     82.3863E-03
            1202             202     85.1365E-03     82.3863E-03
            1218             203     103.961E-03     104.410E-03
            1234             203     103.961E-03     104.410E-03
            1234             204     119.840E-03     122.749E-03
            1250             204     119.840E-03     122.749E-03
            1250             205     135.919E-03     136.044E-03
            1266             205     135.919E-03     136.044E-03
            1282             206     149.087E-03     153.073E-03
            1266             206     149.087E-03     153.073E-03
            1282             207     144.605E-03     148.736E-03
            1298             207     144.605E-03     148.736E-03
            1298             208     148.053E-03     144.297E-03
            1314             208     148.053E-03     144.297E-03
            1314             209     166.325E-03     168.442E-03
            1330             209     166.325E-03     168.442E-03
            1330             210     184.007E-03     185.539E-03
            1346             210     184.007E-03     185.539E-03
            1346             211     197.499E-03     202.022E-03
            1362             211     197.499E-03     202.022E-03
            1362             212     212.935E-03     213.820E-03
            1378             212     212.935E-03     213.820E-03
            1394             213     224.565E-03     228.494E-03
            1378             213     224.565E-03     228.494E-03
            1394             214     217.256E-03     223.154E-03
            1410             214     217.256E-03     223.154E-03
            1410             215     221.579E-03     217.770E-03
            1426             215     221.579E-03     217.770E-03
            1426             216     240.993E-03     243.904E-03
            1442             216     240.993E-03     243.904E-03
            1458             217     259.170E-03     262.032E-03
            1442             217     259.170E-03     262.032E-03
            1458             218     272.718E-03     278.573E-03
            1474             218     272.718E-03     278.573E-03
            1490             219     287.794E-03     289.437E-03
            1474             219     287.794E-03     289.437E-03
            1506             220     298.339E-03     302.274E-03
            1490             220     298.339E-03     302.274E-03
            1506             221     289.315E-03     296.998E-03
            1522             221     289.315E-03     296.998E-03
            1522             222     294.101E-03     292.066E-03
            1538             222     294.101E-03     292.066E-03
            1554             223     317.143E-03     319.030E-03
            1538             223     317.143E-03     319.030E-03
            1570             224     333.079E-03     341.971E-03
            1554             224     333.079E-03     341.971E-03
            1586             225     349.549E-03     351.020E-03
            1570             225     349.549E-03     351.020E-03
            1602             226     358.727E-03     363.627E-03
            1586             226     358.727E-03     363.627E-03
            1752             339     11.8175E-03     19.0665E-03
            1736             339     11.8175E-03     19.0665E-03
            1736             340     21.2792E-03     29.7229E-03
            1720             340     21.2792E-03     29.7229E-03
            1720             341     34.8000E-03     42.9513E-03
            1704             341     34.8000E-03     42.9513E-03
            1688             342     24.2356E-03     30.2411E-03
            1704             342     24.2356E-03     30.2411E-03
            1688             343     20.3314E-03     27.2191E-03
            1687             343     20.3314E-03     27.2191E-03
            1616             343     20.3314E-03     27.2191E-03
            1617             343     20.3314E-03     27.2191E-03
            1615             344     40.1767E-03     48.5776E-03
            1616             344     40.1767E-03     48.5776E-03
            1687             344     40.1767E-03     48.5776E-03
            1686             344     40.1767E-03     48.5776E-03
            1686             345     60.9954E-03     70.1970E-03
            1685             345     60.9954E-03     70.1970E-03
            1614             345     60.9954E-03     70.1970E-03
            1615             345     60.9954E-03     70.1970E-03
            1613             346     82.2246E-03     91.7588E-03
            1685             346     82.2246E-03     91.7588E-03
            1684             346     82.2246E-03     91.7588E-03
            1614             346     82.2246E-03     91.7588E-03
            1684             347     103.605E-03     113.236E-03
            1683             347     103.605E-03     113.236E-03
            1612             347     103.605E-03     113.236E-03
            1613             347     103.605E-03     113.236E-03
            1683             348     124.996E-03     134.639E-03
            1682             348     124.996E-03     134.639E-03
            1612             348     124.996E-03     134.639E-03
            1611             348     124.996E-03     134.639E-03
            1611             349     146.388E-03     155.975E-03
            1682             349     146.388E-03     155.975E-03
            1610             349     146.388E-03     155.975E-03
            1681             349     146.388E-03     155.975E-03
            1609             350     167.649E-03     177.247E-03
            1680             350     167.649E-03     177.247E-03
            1681             350     167.649E-03     177.247E-03
            1610             350     167.649E-03     177.247E-03
            1679             351     188.866E-03     198.377E-03
            1680             351     188.866E-03     198.377E-03
            1608             351     188.866E-03     198.377E-03
            1609             351     188.866E-03     198.377E-03
            1678             352     209.910E-03     219.378E-03
            1608             352     209.910E-03     219.378E-03
            1679             352     209.910E-03     219.378E-03
            1607             352     209.910E-03     219.378E-03
            1678             353     231.050E-03     240.204E-03
            1606             353     231.050E-03     240.204E-03
            1607             353     231.050E-03     240.204E-03
            1677             353     231.050E-03     240.204E-03
            1676             354     252.175E-03     260.995E-03
            1606             354     252.175E-03     260.995E-03
            1605             354     252.175E-03     260.995E-03
            1677             354     252.175E-03     260.995E-03
            1676             355     274.333E-03     282.393E-03
            1675             355     274.333E-03     282.393E-03
            1605             355     274.333E-03     282.393E-03
            1604             355     274.333E-03     282.393E-03
            1675             356     297.552E-03     305.429E-03
            1603             356     297.552E-03     305.429E-03
            1604             356     297.552E-03     305.429E-03
            1674             356     297.552E-03     305.429E-03
            1674             357     328.879E-03     339.793E-03
            1602             357     328.879E-03     339.793E-03
            1673             357     328.879E-03     339.793E-03
            1603             357     328.879E-03     339.793E-03
            2656             374     29.0860E-03     43.8166E-03
            2655             374     29.0860E-03     43.8166E-03
            1752             374     29.0860E-03     43.8166E-03
            1751             374     29.0860E-03     43.8166E-03
            1751             375     44.2735E-03     66.6871E-03
            1750             375     44.2735E-03     66.6871E-03
            2654             375     44.2735E-03     66.6871E-03
            2655             375     44.2735E-03     66.6871E-03
            1750             376     65.3433E-03     90.4449E-03
            1749             376     65.3433E-03     90.4449E-03
            2654             376     65.3433E-03     90.4449E-03
            2653             376     65.3433E-03     90.4449E-03
            2653             377     88.4002E-03     114.431E-03
            1749             377     88.4002E-03     114.431E-03
            1748             377     88.4002E-03     114.431E-03
            2652             377     88.4002E-03     114.431E-03
            2651             378     112.289E-03     138.588E-03
            2652             378     112.289E-03     138.588E-03
            1747             378     112.289E-03     138.588E-03
            1748             378     112.289E-03     138.588E-03
            1747             379     136.384E-03     162.902E-03
            2650             379     136.384E-03     162.902E-03
            2651             379     136.384E-03     162.902E-03
            1746             379     136.384E-03     162.902E-03
            1746             380     160.649E-03     187.232E-03
            2650             380     160.649E-03     187.232E-03
            1745             380     160.649E-03     187.232E-03
            2649             380     160.649E-03     187.232E-03
            1745             381     184.850E-03     211.652E-03
            2648             381     184.850E-03     211.652E-03
            1744             381     184.850E-03     211.652E-03
            2649             381     184.850E-03     211.652E-03
            1744             382     209.205E-03     235.896E-03
            2648             382     209.205E-03     235.896E-03
            1743             382     209.205E-03     235.896E-03
            2647             382     209.205E-03     235.896E-03
            2646             383     233.219E-03     260.251E-03
            2647             383     233.219E-03     260.251E-03
            1743             383     233.219E-03     260.251E-03
            1742             383     233.219E-03     260.251E-03
            1741             384     257.495E-03     284.155E-03
            2645             384     257.495E-03     284.155E-03
            1742             384     257.495E-03     284.155E-03
            2646             384     257.495E-03     284.155E-03
            1740             385     281.017E-03     308.064E-03
            2645             385     281.017E-03     308.064E-03
            1741             385     281.017E-03     308.064E-03
            2644             385     281.017E-03     308.064E-03
            1740             386     305.792E-03     331.999E-03
            2643             386     305.792E-03     331.999E-03
            1739             386     305.792E-03     331.999E-03
            2644             386     305.792E-03     331.999E-03
            1739             387     328.408E-03     354.599E-03
            2643             387     328.408E-03     354.599E-03
            1738             387     328.408E-03     354.599E-03
            2642             387     328.408E-03     354.599E-03
            2642             388     367.151E-03     395.965E-03
            1737             388     367.151E-03     395.965E-03
            2641             388     367.151E-03     395.965E-03
            1738             388     367.151E-03     395.965E-03
            1737             389     408.144E-03     416.365E-03
            1721             389     408.144E-03     416.365E-03
            1705             390     395.795E-03     397.119E-03
            1721             390     395.795E-03     397.119E-03
            1689             391     368.529E-03     371.388E-03
            1705             391     368.529E-03     371.388E-03
            1673             392     347.854E-03     350.322E-03
            1689             392     347.854E-03     350.322E-03
            2704             412     51.2595E-03     52.5816E-03
            2720             412     51.2595E-03     52.5816E-03
            2688             413     38.4564E-03     41.1632E-03
            2704             413     38.4564E-03     41.1632E-03
            2672             414     38.6960E-03     37.8061E-03
            2688             414     38.6960E-03     37.8061E-03
            2672             415     43.8837E-03     45.9625E-03
            2656             415     43.8837E-03     45.9625E-03
            2657             420     368.815E-03     374.497E-03
            2641             420     368.815E-03     374.497E-03
            2657             421     351.400E-03     356.501E-03
            2673             421     351.400E-03     356.501E-03
            2689             422     337.353E-03     350.315E-03
            2673             422     337.353E-03     350.315E-03
            2705             423     292.125E-03     281.327E-03
            2689             423     292.125E-03     281.327E-03
            2369             444     255.665E-03     269.031E-03
            2385             444     255.665E-03     269.031E-03
            2385             445     215.062E-03     202.249E-03
            2401             445     215.062E-03     202.249E-03
            2401             446     203.723E-03     212.775E-03
            2417             446     203.723E-03     212.775E-03
            2433             447     211.543E-03     221.202E-03
            2417             447     211.543E-03     221.202E-03
            2433             448     181.031E-03     178.912E-03
            2449             448     181.031E-03     178.912E-03
            2449             449     144.745E-03     148.797E-03
            2465             449     144.745E-03     148.797E-03
            2481             450     115.919E-03     112.965E-03
            2465             450     115.919E-03     112.965E-03
            2481             451     83.6392E-03     81.5915E-03
            2497             451     83.6392E-03     81.5915E-03
            2513             452     55.0482E-03     61.1055E-03
            2497             452     55.0482E-03     61.1055E-03
            2513             453     27.6178E-03     34.0505E-03
            2529             453     27.6178E-03     34.0505E-03
            2370             507     257.777E-03     267.326E-03
            2705             507     257.777E-03     267.326E-03
            2369             507     257.777E-03     267.326E-03
            2706             507     257.777E-03     267.326E-03
            2707             508     244.792E-03     250.636E-03
            2706             508     244.792E-03     250.636E-03
            2370             508     244.792E-03     250.636E-03
            2371             508     244.792E-03     250.636E-03
            2707             509     230.854E-03     236.421E-03
            2708             509     230.854E-03     236.421E-03
            2372             509     230.854E-03     236.421E-03
            2371             509     230.854E-03     236.421E-03
            2372             510     213.560E-03     219.693E-03
            2708             510     213.560E-03     219.693E-03
            2373             510     213.560E-03     219.693E-03
            2709             510     213.560E-03     219.693E-03
            2374             511     196.810E-03     202.999E-03
            2710             511     196.810E-03     202.999E-03
            2373             511     196.810E-03     202.999E-03
            2709             511     196.810E-03     202.999E-03
            2710             512     179.728E-03     185.902E-03
            2374             512     179.728E-03     185.902E-03
            2375             512     179.728E-03     185.902E-03
            2711             512     179.728E-03     185.902E-03
            2375             513     162.741E-03     168.927E-03
            2376             513     162.741E-03     168.927E-03
            2712             513     162.741E-03     168.927E-03
            2711             513     162.741E-03     168.927E-03
            2712             514     145.759E-03     151.942E-03
            2376             514     145.759E-03     151.942E-03
            2377             514     145.759E-03     151.942E-03
            2713             514     145.759E-03     151.942E-03
            2713             515     128.965E-03     135.152E-03
            2378             515     128.965E-03     135.152E-03
            2714             515     128.965E-03     135.152E-03
            2377             515     128.965E-03     135.152E-03
            2379             516     112.442E-03     118.601E-03
            2714             516     112.442E-03     118.601E-03
            2715             516     112.442E-03     118.601E-03
            2378             516     112.442E-03     118.601E-03
            2380             517     96.3765E-03     102.469E-03
            2715             517     96.3765E-03     102.469E-03
            2716             517     96.3765E-03     102.469E-03
            2379             517     96.3765E-03     102.469E-03
            2717             518     81.0600E-03     86.9903E-03
            2716             518     81.0600E-03     86.9903E-03
            2380             518     81.0600E-03     86.9903E-03
            2381             518     81.0600E-03     86.9903E-03
            2382             519     66.9852E-03     72.7793E-03
            2717             519     66.9852E-03     72.7793E-03
            2718             519     66.9852E-03     72.7793E-03
            2381             519     66.9852E-03     72.7793E-03
            2382             520     55.7554E-03     60.8807E-03
            2718             520     55.7554E-03     60.8807E-03
            2719             520     55.7554E-03     60.8807E-03
            2383             520     55.7554E-03     60.8807E-03
            2719             521     46.2618E-03     49.7201E-03
            2720             521     46.2618E-03     49.7201E-03
            2384             521     46.2618E-03     49.7201E-03
            2383             521     46.2618E-03     49.7201E-03
            2384             522     39.9291E-03     41.4809E-03
            2400             522     39.9291E-03     41.4809E-03
            2416             523     48.8157E-03     48.8581E-03
            2400             523     48.8157E-03     48.8581E-03
            2432             524     39.8747E-03     44.0336E-03
            2416             524     39.8747E-03     44.0336E-03
            2448             525     36.8704E-03     40.2719E-03
            2432             525     36.8704E-03     40.2719E-03
            2464             526     45.1601E-03     39.7561E-03
            2448             526     45.1601E-03     39.7561E-03
            2464             527     49.1928E-03     43.5745E-03
            2480             527     49.1928E-03     43.5745E-03
            2496             528     53.2277E-03     47.2451E-03
            2480             528     53.2277E-03     47.2451E-03
            2496             529     57.4809E-03     53.6956E-03
            2512             529     57.4809E-03     53.6956E-03
            2528             530     56.3330E-03     63.7061E-03
            2512             530     56.3330E-03     63.7061E-03
            2544             531     28.8449E-03     35.1008E-03
            2528             531     28.8449E-03     35.1008E-03
            2929             532     1.94920E-03     2.19417E-03
            2930             532     1.94920E-03     2.19417E-03
            2543             532     1.94920E-03     2.19417E-03
            2544             532     1.94920E-03     2.19417E-03
            2543             533     2.04803E-03     2.30024E-03
            2542             533     2.04803E-03     2.30024E-03
            2928             533     2.04803E-03     2.30024E-03
            2929             533     2.04803E-03     2.30024E-03
            2542             534     2.20932E-03     2.46166E-03
            2928             534     2.20932E-03     2.46166E-03
            2541             534     2.20932E-03     2.46166E-03
            2927             534     2.20932E-03     2.46166E-03
            2541             535     2.42083E-03     2.66853E-03
            2927             535     2.42083E-03     2.66853E-03
            2926             535     2.42083E-03     2.66853E-03
            2540             535     2.42083E-03     2.66853E-03
            2926             536     2.67078E-03     2.91127E-03
            2539             536     2.67078E-03     2.91127E-03
            2925             536     2.67078E-03     2.91127E-03
            2540             536     2.67078E-03     2.91127E-03
            2538             537     2.94944E-03     3.18172E-03
            2925             537     2.94944E-03     3.18172E-03
            2924             537     2.94944E-03     3.18172E-03
            2539             537     2.94944E-03     3.18172E-03
            2924             538     3.24944E-03     3.47339E-03
            2538             538     3.24944E-03     3.47339E-03
            2923             538     3.24944E-03     3.47339E-03
            2537             538     3.24944E-03     3.47339E-03
            2536             539     3.56536E-03     3.78139E-03
            2923             539     3.56536E-03     3.78139E-03
            2922             539     3.56536E-03     3.78139E-03
            2537             539     3.56536E-03     3.78139E-03
            2536             540     3.89333E-03     4.10201E-03
            2535             540     3.89333E-03     4.10201E-03
            2922             540     3.89333E-03     4.10201E-03
            2921             540     3.89333E-03     4.10201E-03
            2921             541     4.23052E-03     4.43252E-03
            2920             541     4.23052E-03     4.43252E-03
            2534             541     4.23052E-03     4.43252E-03
            2535             541     4.23052E-03     4.43252E-03
            2534             542     4.57490E-03     4.77085E-03
            2533             542     4.57490E-03     4.77085E-03
            2920             542     4.57490E-03     4.77085E-03
            2919             542     4.57490E-03     4.77085E-03
            2532             543     4.92494E-03     5.11545E-03
            2533             543     4.92494E-03     5.11545E-03
            2919             543     4.92494E-03     5.11545E-03
            2918             543     4.92494E-03     5.11545E-03
            2531             544     5.27952E-03     5.46512E-03
            2532             544     5.27952E-03     5.46512E-03
            2918             544     5.27952E-03     5.46512E-03
            2917             544     5.27952E-03     5.46512E-03
            2530             545     5.63778E-03     5.81895E-03
            2531             545     5.63778E-03     5.81895E-03
            2917             545     5.63778E-03     5.81895E-03
            2916             545     5.63778E-03     5.81895E-03
            2530             546     5.99906E-03     6.17622E-03
            2916             546     5.99906E-03     6.17622E-03
            2915             546     5.99906E-03     6.17622E-03
            2529             546     5.99906E-03     6.17622E-03
            3010             582     7.95205E-15     13.1498E-15
            2994             582     7.95205E-15     13.1498E-15
            2978             583     8.71289E-15     4.86264E-15
            2994             583     8.71289E-15     4.86264E-15
            2978             584     11.8651E-15     7.91269E-15
            2962             584     11.8651E-15     7.91269E-15
            2946             585     12.8897E-15     15.7403E-15
            2962             585     12.8897E-15     15.7403E-15
            2930             586     13.7686E-15     25.5849E-15
            2946             586     13.7686E-15     25.5849E-15
            2979             596     21.1969E-15     25.5782E-15
            2995             596     21.1969E-15     25.5782E-15
            2979             597     20.1337E-15     23.3393E-15
            2963             597     20.1337E-15     23.3393E-15
            2947             598     12.8055E-15     13.7650E-15
            2963             598     12.8055E-15     13.7650E-15
            2947             599     12.9400E-15     12.6174E-15
            2931             599     12.9400E-15     12.6174E-15
            2915             600     19.7625E-15     22.0534E-15
            2931             600     19.7625E-15     22.0534E-15
            3009             616     15.5104E-15     18.6090E-15
            3010             616     15.5104E-15     18.6090E-15
            3008             617     20.3790E-15     16.6369E-15
            3009             617     20.3790E-15     16.6369E-15
            3007             618     23.8565E-15     18.7788E-15
            3008             618     23.8565E-15     18.7788E-15
            3006             619     18.1239E-15     13.3094E-15
            3007             619     18.1239E-15     13.3094E-15
            3006             620     9.97546E-15     9.76300E-15
            3005             620     9.97546E-15     9.76300E-15
            3005             621     11.1818E-15     9.90508E-15
            3004             621     11.1818E-15     9.90508E-15
            3003             622     11.7967E-15     5.40077E-15
            3004             622     11.7967E-15     5.40077E-15
            3002             623     14.7097E-15     4.74480E-15
            3003             623     14.7097E-15     4.74480E-15
            3002             624     11.5098E-15     8.10110E-15
            3001             624     11.5098E-15     8.10110E-15
            3001             625     14.5895E-15     15.0270E-15
            3000             625     14.5895E-15     15.0270E-15
            3000             626     20.3117E-15     20.5948E-15
            2999             626     20.3117E-15     20.5948E-15
            2998             627     14.3906E-15     14.6262E-15
            2999             627     14.3906E-15     14.6262E-15
            2997             628     11.7408E-15     12.2095E-15
            2998             628     11.7408E-15     12.2095E-15
            2996             629     14.4288E-15     17.1371E-15
            2997             629     14.4288E-15     17.1371E-15
            2995             630     17.2988E-15     21.9093E-15
            2996             630     17.2988E-15     21.9093E-15
             545            1130     23.9325E-15     23.7832E-15
             562            1130     23.9325E-15     23.7832E-15
             561            1130     23.9325E-15     23.7832E-15
             546            1130     23.9325E-15     23.7832E-15
             546            1131     24.2955E-15     26.8934E-15
             562            1131     24.2955E-15     26.8934E-15
             563            1131     24.2955E-15     26.8934E-15
             547            1131     24.2955E-15     26.8934E-15
             547            1132     19.9923E-15     20.5804E-15
             563            1132     19.9923E-15     20.5804E-15
             564            1132     19.9923E-15     20.5804E-15
             548            1132     19.9923E-15     20.5804E-15
             565            1133     15.1686E-15     16.3058E-15
             549            1133     15.1686E-15     16.3058E-15
             564            1133     15.1686E-15     16.3058E-15
             548            1133     15.1686E-15     16.3058E-15
             565            1134     19.8126E-15     20.4309E-15
             566            1134     19.8126E-15     20.4309E-15
             549            1134     19.8126E-15     20.4309E-15
             550            1134     19.8126E-15     20.4309E-15
             550            1135     18.7290E-15     18.2903E-15
             566            1135     18.7290E-15     18.2903E-15
             567            1135     18.7290E-15     18.2903E-15
             551            1135     18.7290E-15     18.2903E-15
             567            1136     13.2008E-15     13.7658E-15
             568            1136     13.2008E-15     13.7658E-15
             552            1136     13.2008E-15     13.7658E-15
             551            1136     13.2008E-15     13.7658E-15
             552            1137     13.6049E-15     13.4839E-15
             569            1137     13.6049E-15     13.4839E-15
             568            1137     13.6049E-15     13.4839E-15
             553            1137     13.6049E-15     13.4839E-15
             554            1138     13.3420E-15     12.7928E-15
             569            1138     13.3420E-15     12.7928E-15
             570            1138     13.3420E-15     12.7928E-15
             553            1138     13.3420E-15     12.7928E-15
             555            1139     12.9475E-15     11.7120E-15
             554            1139     12.9475E-15     11.7120E-15
             570            1139     12.9475E-15     11.7120E-15
             571            1139     12.9475E-15     11.7120E-15
             571            1140     16.8529E-15     15.2012E-15
             556            1140     16.8529E-15     15.2012E-15
             572            1140     16.8529E-15     15.2012E-15
             555            1140     16.8529E-15     15.2012E-15
             556            1141     21.8047E-15     20.7023E-15
             557            1141     21.8047E-15     20.7023E-15
             572            1141     21.8047E-15     20.7023E-15
             573            1141     21.8047E-15     20.7023E-15
             557            1142     26.3305E-15     26.3968E-15
             573            1142     26.3305E-15     26.3968E-15
             558            1142     26.3305E-15     26.3968E-15
             574            1142     26.3305E-15     26.3968E-15
             559            1143     22.1884E-15     22.8919E-15
             558            1143     22.1884E-15     22.8919E-15
             575            1143     22.1884E-15     22.8919E-15
             574            1143     22.1884E-15     22.8919E-15
             576            1144     13.9733E-15     14.4715E-15
             575            1144     13.9733E-15     14.4715E-15
             560            1144     13.9733E-15     14.4715E-15
             559            1144     13.9733E-15     14.4715E-15
             561            1145     22.5010E-15     22.5451E-15
             562            1145     22.5010E-15     22.5451E-15
             577            1145     22.5010E-15     22.5451E-15
             578            1145     22.5010E-15     22.5451E-15
             563            1146     25.0984E-15     26.5130E-15
             578            1146     25.0984E-15     26.5130E-15
             579            1146     25.0984E-15     26.5130E-15
             562            1146     25.0984E-15     26.5130E-15
             564            1147     21.2265E-15     21.4639E-15
             580            1147     21.2265E-15     21.4639E-15
             579            1147     21.2265E-15     21.4639E-15
             563            1147     21.2265E-15     21.4639E-15
             581            1148     12.7766E-15     13.1749E-15
             564            1148     12.7766E-15     13.1749E-15
             580            1148     12.7766E-15     13.1749E-15
             565            1148     12.7766E-15     13.1749E-15
             566            1149     14.5725E-15     13.9801E-15
             565            1149     14.5725E-15     13.9801E-15
             581            1149     14.5725E-15     13.9801E-15
             582            1149     14.5725E-15     13.9801E-15
             567            1150     21.3036E-15     21.3559E-15
             566            1150     21.3036E-15     21.3559E-15
             583            1150     21.3036E-15     21.3559E-15
             582            1150     21.3036E-15     21.3559E-15
             568            1151     16.5346E-15     17.4957E-15
             567            1151     16.5346E-15     17.4957E-15
             583            1151     16.5346E-15     17.4957E-15
             584            1151     16.5346E-15     17.4957E-15
             584            1152     9.58998E-15     9.99022E-15
             568            1152     9.58998E-15     9.99022E-15
             585            1152     9.58998E-15     9.99022E-15
             569            1152     9.58998E-15     9.99022E-15
             570            1153     9.19469E-15     10.3150E-15
             586            1153     9.19469E-15     10.3150E-15
             569            1153     9.19469E-15     10.3150E-15
             585            1153     9.19469E-15     10.3150E-15
             571            1154     10.5181E-15     10.5089E-15
             586            1154     10.5181E-15     10.5089E-15
             587            1154     10.5181E-15     10.5089E-15
             570            1154     10.5181E-15     10.5089E-15
             588            1155     14.7522E-15     13.9725E-15
             571            1155     14.7522E-15     13.9725E-15
             587            1155     14.7522E-15     13.9725E-15
             572            1155     14.7522E-15     13.9725E-15
             572            1156     21.6487E-15     21.4311E-15
             589            1156     21.6487E-15     21.4311E-15
             588            1156     21.6487E-15     21.4311E-15
             573            1156     21.6487E-15     21.4311E-15
             590            1157     28.3648E-15     28.4462E-15
             574            1157     28.3648E-15     28.4462E-15
             573            1157     28.3648E-15     28.4462E-15
             589            1157     28.3648E-15     28.4462E-15
             574            1158     19.2590E-15     19.5880E-15
             591            1158     19.2590E-15     19.5880E-15
             575            1158     19.2590E-15     19.5880E-15
             590            1158     19.2590E-15     19.5880E-15
             591            1159     10.9237E-15     11.0590E-15
             592            1159     10.9237E-15     11.0590E-15
             575            1159     10.9237E-15     11.0590E-15
             576            1159     10.9237E-15     11.0590E-15
             578            1160     10.9230E-15     10.9414E-15
             577            1160     10.9230E-15     10.9414E-15
             593            1160     10.9230E-15     10.9414E-15
             594            1160     10.9230E-15     10.9414E-15
             594            1161     15.3686E-15     15.6667E-15
             578            1161     15.3686E-15     15.6667E-15
             595            1161     15.3686E-15     15.6667E-15
             579            1161     15.3686E-15     15.6667E-15
             596            1162     16.7742E-15     16.7331E-15
             579            1162     16.7742E-15     16.7331E-15
             580            1162     16.7742E-15     16.7331E-15
             595            1162     16.7742E-15     16.7331E-15
             581            1163     12.2933E-15     13.4088E-15
             597            1163     12.2933E-15     13.4088E-15
             596            1163     12.2933E-15     13.4088E-15
             580            1163     12.2933E-15     13.4088E-15
             582            1164     12.6286E-15     13.4422E-15
             597            1164     12.6286E-15     13.4422E-15
             598            1164     12.6286E-15     13.4422E-15
             581            1164     12.6286E-15     13.4422E-15
             583            1165     16.3560E-15     16.7500E-15
             582            1165     16.3560E-15     16.7500E-15
             599            1165     16.3560E-15     16.7500E-15
             598            1165     16.3560E-15     16.7500E-15
             600            1166     13.0971E-15     13.5185E-15
             584            1166     13.0971E-15     13.5185E-15
             599            1166     13.0971E-15     13.5185E-15
             583            1166     13.0971E-15     13.5185E-15
             600            1167     13.2750E-15     12.9943E-15
             585            1167     13.2750E-15     12.9943E-15
             601            1167     13.2750E-15     12.9943E-15
             584            1167     13.2750E-15     12.9943E-15
             585            1168     14.3096E-15     14.3137E-15
             601            1168     14.3096E-15     14.3137E-15
             602            1168     14.3096E-15     14.3137E-15
             586            1168     14.3096E-15     14.3137E-15
             586            1169     12.2166E-15     12.3572E-15
             603            1169     12.2166E-15     12.3572E-15
             602            1169     12.2166E-15     12.3572E-15
             587            1169     12.2166E-15     12.3572E-15
             588            1170     10.9685E-15     10.6647E-15
             603            1170     10.9685E-15     10.6647E-15
             604            1170     10.9685E-15     10.6647E-15
             587            1170     10.9685E-15     10.6647E-15
             589            1171     9.24848E-15     9.27410E-15
             605            1171     9.24848E-15     9.27410E-15
             604            1171     9.24848E-15     9.27410E-15
             588            1171     9.24848E-15     9.27410E-15
             605            1172     13.3472E-15     13.8684E-15
             606            1172     13.3472E-15     13.8684E-15
             590            1172     13.3472E-15     13.8684E-15
             589            1172     13.3472E-15     13.8684E-15
             590            1173     14.0542E-15     14.7086E-15
             606            1173     14.0542E-15     14.7086E-15
             591            1173     14.0542E-15     14.7086E-15
             607            1173     14.0542E-15     14.7086E-15
             592            1174     11.4878E-15     11.1320E-15
             608            1174     11.4878E-15     11.1320E-15
             607            1174     11.4878E-15     11.1320E-15
             591            1174     11.4878E-15     11.1320E-15
             610            1175     12.8555E-15     14.3171E-15
             594            1175     12.8555E-15     14.3171E-15
             609            1175     12.8555E-15     14.3171E-15
             593            1175     12.8555E-15     14.3171E-15
             594            1176     13.9474E-15     12.8557E-15
             611            1176     13.9474E-15     12.8557E-15
             595            1176     13.9474E-15     12.8557E-15
             610            1176     13.9474E-15     12.8557E-15
             596            1177     12.7707E-15     12.3827E-15
             595            1177     12.7707E-15     12.3827E-15
             611            1177     12.7707E-15     12.3827E-15
             612            1177     12.7707E-15     12.3827E-15
             613            1178     12.0859E-15     12.4030E-15
             596            1178     12.0859E-15     12.4030E-15
             612            1178     12.0859E-15     12.4030E-15
             597            1178     12.0859E-15     12.4030E-15
             597            1179     13.6568E-15     14.7217E-15
             613            1179     13.6568E-15     14.7217E-15
             614            1179     13.6568E-15     14.7217E-15
             598            1179     13.6568E-15     14.7217E-15
             615            1180     15.8200E-15     16.9059E-15
             614            1180     15.8200E-15     16.9059E-15
             599            1180     15.8200E-15     16.9059E-15
             598            1180     15.8200E-15     16.9059E-15
             616            1181     11.7071E-15     12.6374E-15
             615            1181     11.7071E-15     12.6374E-15
             600            1181     11.7071E-15     12.6374E-15
             599            1181     11.7071E-15     12.6374E-15
             616            1182     12.4914E-15     11.8505E-15
             601            1182     12.4914E-15     11.8505E-15
             617            1182     12.4914E-15     11.8505E-15
             600            1182     12.4914E-15     11.8505E-15
             601            1183     13.8505E-15     12.4487E-15
             602            1183     13.8505E-15     12.4487E-15
             618            1183     13.8505E-15     12.4487E-15
             617            1183     13.8505E-15     12.4487E-15
             602            1184     12.3264E-15     11.9435E-15
             603            1184     12.3264E-15     11.9435E-15
             619            1184     12.3264E-15     11.9435E-15
             618            1184     12.3264E-15     11.9435E-15
             604            1185     10.7312E-15     10.0688E-15
             619            1185     10.7312E-15     10.0688E-15
             620            1185     10.7312E-15     10.0688E-15
             603            1185     10.7312E-15     10.0688E-15
             621            1186     5.80544E-15     5.13202E-15
             605            1186     5.80544E-15     5.13202E-15
             620            1186     5.80544E-15     5.13202E-15
             604            1186     5.80544E-15     5.13202E-15
             606            1187     12.8479E-15     13.5033E-15
             622            1187     12.8479E-15     13.5033E-15
             621            1187     12.8479E-15     13.5033E-15
             605            1187     12.8479E-15     13.5033E-15
             607            1188     16.0831E-15     17.1660E-15
             606            1188     16.0831E-15     17.1660E-15
             622            1188     16.0831E-15     17.1660E-15
             623            1188     16.0831E-15     17.1660E-15
             607            1189     10.3713E-15     9.58687E-15
             623            1189     10.3713E-15     9.58687E-15
             608            1189     10.3713E-15     9.58687E-15
             624            1189     10.3713E-15     9.58687E-15
             625            1190     18.4081E-15     19.3978E-15
             626            1190     18.4081E-15     19.3978E-15
             610            1190     18.4081E-15     19.3978E-15
             609            1190     18.4081E-15     19.3978E-15
             611            1191     13.1430E-15     13.6352E-15
             626            1191     13.1430E-15     13.6352E-15
             627            1191     13.1430E-15     13.6352E-15
             610            1191     13.1430E-15     13.6352E-15
             611            1192     11.2537E-15     11.5162E-15
             627            1192     11.2537E-15     11.5162E-15
             628            1192     11.2537E-15     11.5162E-15
             612            1192     11.2537E-15     11.5162E-15
             628            1193     12.9333E-15     12.1521E-15
             629            1193     12.9333E-15     12.1521E-15
             613            1193     12.9333E-15     12.1521E-15
             612            1193     12.9333E-15     12.1521E-15
             613            1194     10.6886E-15     10.4330E-15
             629            1194     10.6886E-15     10.4330E-15
             630            1194     10.6886E-15     10.4330E-15
             614            1194     10.6886E-15     10.4330E-15
             614            1195     11.7883E-15     12.1911E-15
             615            1195     11.7883E-15     12.1911E-15
             630            1195     11.7883E-15     12.1911E-15
             631            1195     11.7883E-15     12.1911E-15
             632            1196     11.0414E-15     11.1239E-15
             616            1196     11.0414E-15     11.1239E-15
             615            1196     11.0414E-15     11.1239E-15
             631            1196     11.0414E-15     11.1239E-15
             633            1197     14.0970E-15     12.7537E-15
             616            1197     14.0970E-15     12.7537E-15
             617            1197     14.0970E-15     12.7537E-15
             632            1197     14.0970E-15     12.7537E-15
             633            1198     19.9537E-15     18.3345E-15
             618            1198     19.9537E-15     18.3345E-15
             617            1198     19.9537E-15     18.3345E-15
             634            1198     19.9537E-15     18.3345E-15
             618            1199     17.4745E-15     16.9607E-15
             634            1199     17.4745E-15     16.9607E-15
             619            1199     17.4745E-15     16.9607E-15
             635            1199     17.4745E-15     16.9607E-15
             619            1200     18.1817E-15     18.0273E-15
             620            1200     18.1817E-15     18.0273E-15
             636            1200     18.1817E-15     18.0273E-15
             635            1200     18.1817E-15     18.0273E-15
             637            1201     16.1138E-15     15.8835E-15
             621            1201     16.1138E-15     15.8835E-15
             620            1201     16.1138E-15     15.8835E-15
             636            1201     16.1138E-15     15.8835E-15
             638            1202     17.8459E-15     18.2335E-15
             637            1202     17.8459E-15     18.2335E-15
             622            1202     17.8459E-15     18.2335E-15
             621            1202     17.8459E-15     18.2335E-15
             639            1203     15.6838E-15     16.6104E-15
             622            1203     15.6838E-15     16.6104E-15
             638            1203     15.6838E-15     16.6104E-15
             623            1203     15.6838E-15     16.6104E-15
             624            1204     8.67920E-15     8.34047E-15
             623            1204     8.67920E-15     8.34047E-15
             639            1204     8.67920E-15     8.34047E-15
             640            1204     8.67920E-15     8.34047E-15
            1090            1511     14.0394E-03     13.3560E-03
            1091            1511     14.0394E-03     13.3560E-03
            1075            1511     14.0394E-03     13.3560E-03
            1074            1511     14.0394E-03     13.3560E-03
            1092            1512     17.8147E-03     14.3307E-03
            1091            1512     17.8147E-03     14.3307E-03
            1075            1512     17.8147E-03     14.3307E-03
            1076            1512     17.8147E-03     14.3307E-03
            1076            1513     20.3297E-03     17.3443E-03
            1092            1513     20.3297E-03     17.3443E-03
            1093            1513     20.3297E-03     17.3443E-03
            1077            1513     20.3297E-03     17.3443E-03
            1078            1514     21.5255E-03     18.8637E-03
            1094            1514     21.5255E-03     18.8637E-03
            1077            1514     21.5255E-03     18.8637E-03
            1093            1514     21.5255E-03     18.8637E-03
            1078            1515     21.5401E-03     19.1308E-03
            1094            1515     21.5401E-03     19.1308E-03
            1095            1515     21.5401E-03     19.1308E-03
            1079            1515     21.5401E-03     19.1308E-03
            1080            1516     21.0921E-03     18.8627E-03
            1096            1516     21.0921E-03     18.8627E-03
            1095            1516     21.0921E-03     18.8627E-03
            1079            1516     21.0921E-03     18.8627E-03
            1096            1517     20.2856E-03     18.2230E-03
            1081            1517     20.2856E-03     18.2230E-03
            1097            1517     20.2856E-03     18.2230E-03
            1080            1517     20.2856E-03     18.2230E-03
            1098            1518     19.3486E-03     17.4420E-03
            1082            1518     19.3486E-03     17.4420E-03
            1081            1518     19.3486E-03     17.4420E-03
            1097            1518     19.3486E-03     17.4420E-03
            1098            1519     18.3517E-03     16.6230E-03
            1099            1519     18.3517E-03     16.6230E-03
            1083            1519     18.3517E-03     16.6230E-03
            1082            1519     18.3517E-03     16.6230E-03
            1084            1520     17.3662E-03     15.8199E-03
            1083            1520     17.3662E-03     15.8199E-03
            1099            1520     17.3662E-03     15.8199E-03
            1100            1520     17.3662E-03     15.8199E-03
            1084            1521     16.4173E-03     15.0847E-03
            1085            1521     16.4173E-03     15.0847E-03
            1101            1521     16.4173E-03     15.0847E-03
            1100            1521     16.4173E-03     15.0847E-03
            1101            1522     15.5486E-03     14.4820E-03
            1086            1522     15.5486E-03     14.4820E-03
            1102            1522     15.5486E-03     14.4820E-03
            1085            1522     15.5486E-03     14.4820E-03
            1086            1523     14.7489E-03     13.9714E-03
            1103            1523     14.7489E-03     13.9714E-03
            1087            1523     14.7489E-03     13.9714E-03
            1102            1523     14.7489E-03     13.9714E-03
            1087            1524     14.0140E-03     13.8176E-03
            1104            1524     14.0140E-03     13.8176E-03
            1103            1524     14.0140E-03     13.8176E-03
            1088            1524     14.0140E-03     13.8176E-03
            1089            1525     12.8286E-03     14.2666E-03
            1105            1525     12.8286E-03     14.2666E-03
            1104            1525     12.8286E-03     14.2666E-03
            1088            1525     12.8286E-03     14.2666E-03
            1091            1526     25.4794E-03     24.4681E-03
            1107            1526     25.4794E-03     24.4681E-03
            1106            1526     25.4794E-03     24.4681E-03
            1090            1526     25.4794E-03     24.4681E-03
            1091            1527     32.3368E-03     27.7065E-03
            1092            1527     32.3368E-03     27.7065E-03
            1108            1527     32.3368E-03     27.7065E-03
            1107            1527     32.3368E-03     27.7065E-03
            1092            1528     38.4735E-03     33.7860E-03
            1108            1528     38.4735E-03     33.7860E-03
            1109            1528     38.4735E-03     33.7860E-03
            1093            1528     38.4735E-03     33.7860E-03
            1110            1529     40.1788E-03     35.8836E-03
            1093            1529     40.1788E-03     35.8836E-03
            1109            1529     40.1788E-03     35.8836E-03
            1094            1529     40.1788E-03     35.8836E-03
            1110            1530     39.9984E-03     35.9899E-03
            1111            1530     39.9984E-03     35.9899E-03
            1095            1530     39.9984E-03     35.9899E-03
            1094            1530     39.9984E-03     35.9899E-03
            1111            1531     38.7539E-03     34.9831E-03
            1112            1531     38.7539E-03     34.9831E-03
            1095            1531     38.7539E-03     34.9831E-03
            1096            1531     38.7539E-03     34.9831E-03
            1096            1532     37.0367E-03     33.5334E-03
            1097            1532     37.0367E-03     33.5334E-03
            1113            1532     37.0367E-03     33.5334E-03
            1112            1532     37.0367E-03     33.5334E-03
            1097            1533     35.1688E-03     31.8947E-03
            1114            1533     35.1688E-03     31.8947E-03
            1098            1533     35.1688E-03     31.8947E-03
            1113            1533     35.1688E-03     31.8947E-03
            1114            1534     33.2594E-03     30.2560E-03
            1098            1534     33.2594E-03     30.2560E-03
            1099            1534     33.2594E-03     30.2560E-03
            1115            1534     33.2594E-03     30.2560E-03
            1116            1535     31.4246E-03     28.7107E-03
            1115            1535     31.4246E-03     28.7107E-03
            1099            1535     31.4246E-03     28.7107E-03
            1100            1535     31.4246E-03     28.7107E-03
            1116            1536     29.6880E-03     27.3189E-03
            1117            1536     29.6880E-03     27.3189E-03
            1100            1536     29.6880E-03     27.3189E-03
            1101            1536     29.6880E-03     27.3189E-03
            1117            1537     28.1017E-03     26.1770E-03
            1101            1537     28.1017E-03     26.1770E-03
            1118            1537     28.1017E-03     26.1770E-03
            1102            1537     28.1017E-03     26.1770E-03
            1119            1538     26.6290E-03     25.3519E-03
            1102            1538     26.6290E-03     25.3519E-03
            1118            1538     26.6290E-03     25.3519E-03
            1103            1538     26.6290E-03     25.3519E-03
            1103            1539     25.1454E-03     25.2115E-03
            1120            1539     25.1454E-03     25.2115E-03
            1104            1539     25.1454E-03     25.2115E-03
            1119            1539     25.1454E-03     25.2115E-03
            1105            1540     23.9147E-03     25.9276E-03
            1121            1540     23.9147E-03     25.9276E-03
            1120            1540     23.9147E-03     25.9276E-03
            1104            1540     23.9147E-03     25.9276E-03
            1123            1541     33.4094E-03     33.0289E-03
            1122            1541     33.4094E-03     33.0289E-03
            1107            1541     33.4094E-03     33.0289E-03
            1106            1541     33.4094E-03     33.0289E-03
            1108            1542     36.1327E-03     35.3944E-03
            1123            1542     36.1327E-03     35.3944E-03
            1107            1542     36.1327E-03     35.3944E-03
            1124            1542     36.1327E-03     35.3944E-03
            1109            1543     41.6379E-03     39.9199E-03
            1124            1543     41.6379E-03     39.9199E-03
            1125            1543     41.6379E-03     39.9199E-03
            1108            1543     41.6379E-03     39.9199E-03
            1125            1544     42.2976E-03     40.2881E-03
            1110            1544     42.2976E-03     40.2881E-03
            1126            1544     42.2976E-03     40.2881E-03
            1109            1544     42.2976E-03     40.2881E-03
            1111            1545     40.9751E-03     38.9111E-03
            1126            1545     40.9751E-03     38.9111E-03
            1127            1545     40.9751E-03     38.9111E-03
            1110            1545     40.9751E-03     38.9111E-03
            1112            1546     38.7381E-03     36.7716E-03
            1128            1546     38.7381E-03     36.7716E-03
            1111            1546     38.7381E-03     36.7716E-03
            1127            1546     38.7381E-03     36.7716E-03
            1129            1547     36.3792E-03     34.5012E-03
            1112            1547     36.3792E-03     34.5012E-03
            1113            1547     36.3792E-03     34.5012E-03
            1128            1547     36.3792E-03     34.5012E-03
            1130            1548     34.0185E-03     32.2522E-03
            1113            1548     34.0185E-03     32.2522E-03
            1129            1548     34.0185E-03     32.2522E-03
            1114            1548     34.0185E-03     32.2522E-03
            1114            1549     31.7969E-03     30.1526E-03
            1130            1549     31.7969E-03     30.1526E-03
            1115            1549     31.7969E-03     30.1526E-03
            1131            1549     31.7969E-03     30.1526E-03
            1115            1550     29.7295E-03     28.2305E-03
            1116            1550     29.7295E-03     28.2305E-03
            1132            1550     29.7295E-03     28.2305E-03
            1131            1550     29.7295E-03     28.2305E-03
            1117            1551     27.8436E-03     26.5522E-03
            1132            1551     27.8436E-03     26.5522E-03
            1133            1551     27.8436E-03     26.5522E-03
            1116            1551     27.8436E-03     26.5522E-03
            1118            1552     26.1810E-03     25.1291E-03
            1117            1552     26.1810E-03     25.1291E-03
            1134            1552     26.1810E-03     25.1291E-03
            1133            1552     26.1810E-03     25.1291E-03
            1118            1553     24.6403E-03     24.1561E-03
            1119            1553     24.6403E-03     24.1561E-03
            1135            1553     24.6403E-03     24.1561E-03
            1134            1553     24.6403E-03     24.1561E-03
            1119            1554     23.4912E-03     23.7154E-03
            1120            1554     23.4912E-03     23.7154E-03
            1135            1554     23.4912E-03     23.7154E-03
            1136            1554     23.4912E-03     23.7154E-03
            1120            1555     23.4636E-03     22.9275E-03
            1136            1555     23.4636E-03     22.9275E-03
            1121            1555     23.4636E-03     22.9275E-03
            1137            1555     23.4636E-03     22.9275E-03
            1123            1556     44.7343E-03     44.8148E-03
            1122            1556     44.7343E-03     44.8148E-03
            1139            1556     44.7343E-03     44.8148E-03
            1138            1556     44.7343E-03     44.8148E-03
            1139            1557     41.8002E-03     43.1012E-03
            1140            1557     41.8002E-03     43.1012E-03
            1123            1557     41.8002E-03     43.1012E-03
            1124            1557     41.8002E-03     43.1012E-03
            1124            1558     43.6289E-03     44.2619E-03
            1125            1558     43.6289E-03     44.2619E-03
            1140            1558     43.6289E-03     44.2619E-03
            1141            1558     43.6289E-03     44.2619E-03
            1141            1559     43.1802E-03     43.1943E-03
            1142            1559     43.1802E-03     43.1943E-03
            1125            1559     43.1802E-03     43.1943E-03
            1126            1559     43.1802E-03     43.1943E-03
            1142            1560     40.7616E-03     40.7012E-03
            1143            1560     40.7616E-03     40.7012E-03
            1126            1560     40.7616E-03     40.7012E-03
            1127            1560     40.7616E-03     40.7012E-03
            1127            1561     38.1036E-03     37.9634E-03
            1143            1561     38.1036E-03     37.9634E-03
            1144            1561     38.1036E-03     37.9634E-03
            1128            1561     38.1036E-03     37.9634E-03
            1144            1562     35.3182E-03     35.1611E-03
            1129            1562     35.3182E-03     35.1611E-03
            1145            1562     35.3182E-03     35.1611E-03
            1128            1562     35.3182E-03     35.1611E-03
            1130            1563     32.6946E-03     32.5369E-03
            1146            1563     32.6946E-03     32.5369E-03
            1145            1563     32.6946E-03     32.5369E-03
            1129            1563     32.6946E-03     32.5369E-03
            1130            1564     30.2504E-03     30.0962E-03
            1147            1564     30.2504E-03     30.0962E-03
            1146            1564     30.2504E-03     30.0962E-03
            1131            1564     30.2504E-03     30.0962E-03
            1147            1565     28.0151E-03     27.8820E-03
            1132            1565     28.0151E-03     27.8820E-03
            1148            1565     28.0151E-03     27.8820E-03
            1131            1565     28.0151E-03     27.8820E-03
            1149            1566     26.0184E-03     25.9185E-03
            1132            1566     26.0184E-03     25.9185E-03
            1133            1566     26.0184E-03     25.9185E-03
            1148            1566     26.0184E-03     25.9185E-03
            1149            1567     24.2789E-03     24.2474E-03
            1134            1567     24.2789E-03     24.2474E-03
            1150            1567     24.2789E-03     24.2474E-03
            1133            1567     24.2789E-03     24.2474E-03
            1135            1568     22.9553E-03     22.8751E-03
            1150            1568     22.9553E-03     22.8751E-03
            1134            1568     22.9553E-03     22.8751E-03
            1151            1568     22.9553E-03     22.8751E-03
            1151            1569     22.2945E-03     21.5140E-03
            1152            1569     22.2945E-03     21.5140E-03
            1136            1569     22.2945E-03     21.5140E-03
            1135            1569     22.2945E-03     21.5140E-03
            1153            1570     22.0672E-03     20.1708E-03
            1152            1570     22.0672E-03     20.1708E-03
            1137            1570     22.0672E-03     20.1708E-03
            1136            1570     22.0672E-03     20.1708E-03
            1139            1571     55.9351E-03     57.3432E-03
            1154            1571     55.9351E-03     57.3432E-03
            1155            1571     55.9351E-03     57.3432E-03
            1138            1571     55.9351E-03     57.3432E-03
            1140            1572     49.0391E-03     50.5421E-03
            1155            1572     49.0391E-03     50.5421E-03
            1156            1572     49.0391E-03     50.5421E-03
            1139            1572     49.0391E-03     50.5421E-03
            1141            1573     45.2967E-03     47.2878E-03
            1156            1573     45.2967E-03     47.2878E-03
            1140            1573     45.2967E-03     47.2878E-03
            1157            1573     45.2967E-03     47.2878E-03
            1158            1574     42.2923E-03     44.2858E-03
            1142            1574     42.2923E-03     44.2858E-03
            1157            1574     42.2923E-03     44.2858E-03
            1141            1574     42.2923E-03     44.2858E-03
            1142            1575     39.5049E-03     41.3127E-03
            1158            1575     39.5049E-03     41.3127E-03
            1159            1575     39.5049E-03     41.3127E-03
            1143            1575     39.5049E-03     41.3127E-03
            1143            1576     36.5678E-03     38.2460E-03
            1144            1576     36.5678E-03     38.2460E-03
            1160            1576     36.5678E-03     38.2460E-03
            1159            1576     36.5678E-03     38.2460E-03
            1160            1577     33.7281E-03     35.3269E-03
            1161            1577     33.7281E-03     35.3269E-03
            1145            1577     33.7281E-03     35.3269E-03
            1144            1577     33.7281E-03     35.3269E-03
            1162            1578     31.0325E-03     32.5475E-03
            1161            1578     31.0325E-03     32.5475E-03
            1145            1578     31.0325E-03     32.5475E-03
            1146            1578     31.0325E-03     32.5475E-03
            1163            1579     28.5080E-03     29.9444E-03
            1162            1579     28.5080E-03     29.9444E-03
            1147            1579     28.5080E-03     29.9444E-03
            1146            1579     28.5080E-03     29.9444E-03
            1147            1580     26.1998E-03     27.5405E-03
            1148            1580     26.1998E-03     27.5405E-03
            1163            1580     26.1998E-03     27.5405E-03
            1164            1580     26.1998E-03     27.5405E-03
            1148            1581     24.1326E-03     25.3429E-03
            1165            1581     24.1326E-03     25.3429E-03
            1164            1581     24.1326E-03     25.3429E-03
            1149            1581     24.1326E-03     25.3429E-03
            1165            1582     22.3724E-03     23.4258E-03
            1149            1582     22.3724E-03     23.4258E-03
            1150            1582     22.3724E-03     23.4258E-03
            1166            1582     22.3724E-03     23.4258E-03
            1167            1583     21.1487E-03     21.6563E-03
            1151            1583     21.1487E-03     21.6563E-03
            1166            1583     21.1487E-03     21.6563E-03
            1150            1583     21.1487E-03     21.6563E-03
            1151            1584     20.5562E-03     19.8343E-03
            1152            1584     20.5562E-03     19.8343E-03
            1168            1584     20.5562E-03     19.8343E-03
            1167            1584     20.5562E-03     19.8343E-03
            1168            1585     20.3354E-03     18.4552E-03
            1153            1585     20.3354E-03     18.4552E-03
            1152            1585     20.3354E-03     18.4552E-03
            1169            1585     20.3354E-03     18.4552E-03
            1154            1586     67.9321E-03     68.3157E-03
            1170            1586     67.9321E-03     68.3157E-03
            1171            1586     67.9321E-03     68.3157E-03
            1155            1586     67.9321E-03     68.3157E-03
            1156            1587     53.9006E-03     56.3821E-03
            1155            1587     53.9006E-03     56.3821E-03
            1171            1587     53.9006E-03     56.3821E-03
            1172            1587     53.9006E-03     56.3821E-03
            1156            1588     45.0023E-03     48.6378E-03
            1172            1588     45.0023E-03     48.6378E-03
            1173            1588     45.0023E-03     48.6378E-03
            1157            1588     45.0023E-03     48.6378E-03
            1157            1589     40.5403E-03     44.3345E-03
            1173            1589     40.5403E-03     44.3345E-03
            1174            1589     40.5403E-03     44.3345E-03
            1158            1589     40.5403E-03     44.3345E-03
            1175            1590     37.3589E-03     40.9742E-03
            1158            1590     37.3589E-03     40.9742E-03
            1174            1590     37.3589E-03     40.9742E-03
            1159            1590     37.3589E-03     40.9742E-03
            1160            1591     34.4280E-03     37.9315E-03
            1175            1591     34.4280E-03     37.9315E-03
            1159            1591     34.4280E-03     37.9315E-03
            1176            1591     34.4280E-03     37.9315E-03
            1161            1592     31.6992E-03     35.0807E-03
            1160            1592     31.6992E-03     35.0807E-03
            1176            1592     31.6992E-03     35.0807E-03
            1177            1592     31.6992E-03     35.0807E-03
            1162            1593     29.0577E-03     32.3207E-03
            1177            1593     29.0577E-03     32.3207E-03
            1178            1593     29.0577E-03     32.3207E-03
            1161            1593     29.0577E-03     32.3207E-03
            1178            1594     26.5630E-03     29.6831E-03
            1179            1594     26.5630E-03     29.6831E-03
            1163            1594     26.5630E-03     29.6831E-03
            1162            1594     26.5630E-03     29.6831E-03
            1163            1595     24.2330E-03     27.1564E-03
            1180            1595     24.2330E-03     27.1564E-03
            1164            1595     24.2330E-03     27.1564E-03
            1179            1595     24.2330E-03     27.1564E-03
            1181            1596     22.1414E-03     24.8085E-03
            1164            1596     22.1414E-03     24.8085E-03
            1165            1596     22.1414E-03     24.8085E-03
            1180            1596     22.1414E-03     24.8085E-03
            1181            1597     20.3860E-03     22.6175E-03
            1166            1597     20.3860E-03     22.6175E-03
            1182            1597     20.3860E-03     22.6175E-03
            1165            1597     20.3860E-03     22.6175E-03
            1167            1598     18.9857E-03     20.6757E-03
            1183            1598     18.9857E-03     20.6757E-03
            1166            1598     18.9857E-03     20.6757E-03
            1182            1598     18.9857E-03     20.6757E-03
            1167            1599     18.1908E-03     19.0006E-03
            1168            1599     18.1908E-03     19.0006E-03
            1184            1599     18.1908E-03     19.0006E-03
            1183            1599     18.1908E-03     19.0006E-03
            1168            1600     18.2793E-03     17.2713E-03
            1169            1600     18.2793E-03     17.2713E-03
            1185            1600     18.2793E-03     17.2713E-03
            1184            1600     18.2793E-03     17.2713E-03
            1186            1601     74.3906E-03     79.1860E-03
            1170            1601     74.3906E-03     79.1860E-03
            1171            1601     74.3906E-03     79.1860E-03
            1187            1601     74.3906E-03     79.1860E-03
            1172            1602     53.2271E-03     58.9173E-03
            1171            1602     53.2271E-03     58.9173E-03
            1187            1602     53.2271E-03     58.9173E-03
            1188            1602     53.2271E-03     58.9173E-03
            1172            1603     43.5349E-03     49.1526E-03
            1173            1603     43.5349E-03     49.1526E-03
            1189            1603     43.5349E-03     49.1526E-03
            1188            1603     43.5349E-03     49.1526E-03
            1189            1604     38.5621E-03     44.0654E-03
            1174            1604     38.5621E-03     44.0654E-03
            1173            1604     38.5621E-03     44.0654E-03
            1190            1604     38.5621E-03     44.0654E-03
            1174            1605     34.9693E-03     40.4264E-03
            1191            1605     34.9693E-03     40.4264E-03
            1190            1605     34.9693E-03     40.4264E-03
            1175            1605     34.9693E-03     40.4264E-03
            1192            1606     32.1523E-03     37.5064E-03
            1191            1606     32.1523E-03     37.5064E-03
            1175            1606     32.1523E-03     37.5064E-03
            1176            1606     32.1523E-03     37.5064E-03
            1192            1607     29.4725E-03     34.7140E-03
            1193            1607     29.4725E-03     34.7140E-03
            1176            1607     29.4725E-03     34.7140E-03
            1177            1607     29.4725E-03     34.7140E-03
            1177            1608     26.9190E-03     32.0294E-03
            1194            1608     26.9190E-03     32.0294E-03
            1193            1608     26.9190E-03     32.0294E-03
            1178            1608     26.9190E-03     32.0294E-03
            1194            1609     24.4515E-03     29.3654E-03
            1179            1609     24.4515E-03     29.3654E-03
            1195            1609     24.4515E-03     29.3654E-03
            1178            1609     24.4515E-03     29.3654E-03
            1179            1610     22.1279E-03     26.7843E-03
            1196            1610     22.1279E-03     26.7843E-03
            1195            1610     22.1279E-03     26.7843E-03
            1180            1610     22.1279E-03     26.7843E-03
            1181            1611     20.0217E-03     24.2870E-03
            1196            1611     20.0217E-03     24.2870E-03
            1197            1611     20.0217E-03     24.2870E-03
            1180            1611     20.0217E-03     24.2870E-03
            1197            1612     18.2211E-03     21.9299E-03
            1182            1612     18.2211E-03     21.9299E-03
            1198            1612     18.2211E-03     21.9299E-03
            1181            1612     18.2211E-03     21.9299E-03
            1182            1613     16.7679E-03     19.7954E-03
            1183            1613     16.7679E-03     19.7954E-03
            1199            1613     16.7679E-03     19.7954E-03
            1198            1613     16.7679E-03     19.7954E-03
            1183            1614     15.6881E-03     18.0993E-03
            1184            1614     15.6881E-03     18.0993E-03
            1200            1614     15.6881E-03     18.0993E-03
            1199            1614     15.6881E-03     18.0993E-03
            1185            1615     15.1833E-03     16.9228E-03
            1184            1615     15.1833E-03     16.9228E-03
            1201            1615     15.1833E-03     16.9228E-03
            1200            1615     15.1833E-03     16.9228E-03
            1186            1616     79.5840E-03     81.3440E-03
            1202            1616     79.5840E-03     81.3440E-03
            1203            1616     79.5840E-03     81.3440E-03
            1187            1616     79.5840E-03     81.3440E-03
            1203            1617     72.5550E-03     72.8409E-03
            1204            1617     72.5550E-03     72.8409E-03
            1187            1617     72.5550E-03     72.8409E-03
            1188            1617     72.5550E-03     72.8409E-03
            1189            1618     68.2039E-03     68.4466E-03
            1188            1618     68.2039E-03     68.4466E-03
            1204            1618     68.2039E-03     68.4466E-03
            1205            1618     68.2039E-03     68.4466E-03
            1190            1619     63.9129E-03     64.4503E-03
            1206            1619     63.9129E-03     64.4503E-03
            1189            1619     63.9129E-03     64.4503E-03
            1205            1619     63.9129E-03     64.4503E-03
            1191            1620     59.7585E-03     60.4406E-03
            1207            1620     59.7585E-03     60.4406E-03
            1190            1620     59.7585E-03     60.4406E-03
            1206            1620     59.7585E-03     60.4406E-03
            1207            1621     55.4965E-03     56.2674E-03
            1191            1621     55.4965E-03     56.2674E-03
            1208            1621     55.4965E-03     56.2674E-03
            1192            1621     55.4965E-03     56.2674E-03
            1192            1622     51.1572E-03     51.9590E-03
            1208            1622     51.1572E-03     51.9590E-03
            1209            1622     51.1572E-03     51.9590E-03
            1193            1622     51.1572E-03     51.9590E-03
            1209            1623     46.8161E-03     47.6323E-03
            1210            1623     46.8161E-03     47.6323E-03
            1194            1623     46.8161E-03     47.6323E-03
            1193            1623     46.8161E-03     47.6323E-03
            1210            1624     42.4942E-03     43.2766E-03
            1195            1624     42.4942E-03     43.2766E-03
            1211            1624     42.4942E-03     43.2766E-03
            1194            1624     42.4942E-03     43.2766E-03
            1196            1625     38.3035E-03     39.0602E-03
            1212            1625     38.3035E-03     39.0602E-03
            1211            1625     38.3035E-03     39.0602E-03
            1195            1625     38.3035E-03     39.0602E-03
            1212            1626     34.3016E-03     34.9635E-03
            1213            1626     34.3016E-03     34.9635E-03
            1197            1626     34.3016E-03     34.9635E-03
            1196            1626     34.3016E-03     34.9635E-03
            1198            1627     30.6344E-03     31.2328E-03
            1213            1627     30.6344E-03     31.2328E-03
            1197            1627     30.6344E-03     31.2328E-03
            1214            1627     30.6344E-03     31.2328E-03
            1214            1628     27.3943E-03     27.8245E-03
            1215            1628     27.3943E-03     27.8245E-03
            1198            1628     27.3943E-03     27.8245E-03
            1199            1628     27.3943E-03     27.8245E-03
            1215            1629     24.6882E-03     25.4102E-03
            1199            1629     24.6882E-03     25.4102E-03
            1216            1629     24.6882E-03     25.4102E-03
            1200            1629     24.6882E-03     25.4102E-03
            1200            1630     21.7668E-03     24.5915E-03
            1216            1630     21.7668E-03     24.5915E-03
            1217            1630     21.7668E-03     24.5915E-03
            1201            1630     21.7668E-03     24.5915E-03
            1203            1631     90.2244E-03     86.8894E-03
            1218            1631     90.2244E-03     86.8894E-03
            1202            1631     90.2244E-03     86.8894E-03
            1219            1631     90.2244E-03     86.8894E-03
            1219            1632     96.3869E-03     92.3853E-03
            1203            1632     96.3869E-03     92.3853E-03
            1220            1632     96.3869E-03     92.3853E-03
            1204            1632     96.3869E-03     92.3853E-03
            1205            1633     95.8570E-03     91.9806E-03
            1204            1633     95.8570E-03     91.9806E-03
            1220            1633     95.8570E-03     91.9806E-03
            1221            1633     95.8570E-03     91.9806E-03
            1221            1634     91.7815E-03     88.0397E-03
            1222            1634     91.7815E-03     88.0397E-03
            1205            1634     91.7815E-03     88.0397E-03
            1206            1634     91.7815E-03     88.0397E-03
            1223            1635     86.1164E-03     82.5248E-03
            1222            1635     86.1164E-03     82.5248E-03
            1207            1635     86.1164E-03     82.5248E-03
            1206            1635     86.1164E-03     82.5248E-03
            1223            1636     79.7751E-03     76.3870E-03
            1208            1636     79.7751E-03     76.3870E-03
            1224            1636     79.7751E-03     76.3870E-03
            1207            1636     79.7751E-03     76.3870E-03
            1224            1637     73.3250E-03     70.0066E-03
            1209            1637     73.3250E-03     70.0066E-03
            1225            1637     73.3250E-03     70.0066E-03
            1208            1637     73.3250E-03     70.0066E-03
            1209            1638     66.7995E-03     63.6029E-03
            1225            1638     66.7995E-03     63.6029E-03
            1210            1638     66.7995E-03     63.6029E-03
            1226            1638     66.7995E-03     63.6029E-03
            1227            1639     60.3700E-03     57.2661E-03
            1226            1639     60.3700E-03     57.2661E-03
            1210            1639     60.3700E-03     57.2661E-03
            1211            1639     60.3700E-03     57.2661E-03
            1211            1640     54.0611E-03     51.0983E-03
            1212            1640     54.0611E-03     51.0983E-03
            1228            1640     54.0611E-03     51.0983E-03
            1227            1640     54.0611E-03     51.0983E-03
            1229            1641     47.9788E-03     45.2088E-03
            1228            1641     47.9788E-03     45.2088E-03
            1212            1641     47.9788E-03     45.2088E-03
            1213            1641     47.9788E-03     45.2088E-03
            1213            1642     42.2588E-03     39.7747E-03
            1230            1642     42.2588E-03     39.7747E-03
            1214            1642     42.2588E-03     39.7747E-03
            1229            1642     42.2588E-03     39.7747E-03
            1230            1643     36.9852E-03     35.0722E-03
            1214            1643     36.9852E-03     35.0722E-03
            1215            1643     36.9852E-03     35.0722E-03
            1231            1643     36.9852E-03     35.0722E-03
            1231            1644     32.2783E-03     31.8415E-03
            1232            1644     32.2783E-03     31.8415E-03
            1215            1644     32.2783E-03     31.8415E-03
            1216            1644     32.2783E-03     31.8415E-03
            1232            1645     28.6614E-03     30.8924E-03
            1233            1645     28.6614E-03     30.8924E-03
            1216            1645     28.6614E-03     30.8924E-03
            1217            1645     28.6614E-03     30.8924E-03
            1219            1646     102.768E-03     104.050E-03
            1235            1646     102.768E-03     104.050E-03
            1218            1646     102.768E-03     104.050E-03
            1234            1646     102.768E-03     104.050E-03
            1236            1647     101.887E-03     103.101E-03
            1220            1647     101.887E-03     103.101E-03
            1219            1647     101.887E-03     103.101E-03
            1235            1647     101.887E-03     103.101E-03
            1220            1648     99.6916E-03     99.5291E-03
            1236            1648     99.6916E-03     99.5291E-03
            1237            1648     99.6916E-03     99.5291E-03
            1221            1648     99.6916E-03     99.5291E-03
            1221            1649     93.5272E-03     92.9501E-03
            1222            1649     93.5272E-03     92.9501E-03
            1237            1649     93.5272E-03     92.9501E-03
            1238            1649     93.5272E-03     92.9501E-03
            1223            1650     86.3132E-03     85.6917E-03
            1222            1650     86.3132E-03     85.6917E-03
            1239            1650     86.3132E-03     85.6917E-03
            1238            1650     86.3132E-03     85.6917E-03
            1240            1651     79.0751E-03     78.3904E-03
            1239            1651     79.0751E-03     78.3904E-03
            1223            1651     79.0751E-03     78.3904E-03
            1224            1651     79.0751E-03     78.3904E-03
            1225            1652     71.8422E-03     71.1719E-03
            1240            1652     71.8422E-03     71.1719E-03
            1241            1652     71.8422E-03     71.1719E-03
            1224            1652     71.8422E-03     71.1719E-03
            1241            1653     64.7822E-03     64.1053E-03
            1242            1653     64.7822E-03     64.1053E-03
            1225            1653     64.7822E-03     64.1053E-03
            1226            1653     64.7822E-03     64.1053E-03
            1226            1654     57.8585E-03     57.2036E-03
            1243            1654     57.8585E-03     57.2036E-03
            1242            1654     57.8585E-03     57.2036E-03
            1227            1654     57.8585E-03     57.2036E-03
            1228            1655     51.1419E-03     50.4826E-03
            1244            1655     51.1419E-03     50.4826E-03
            1227            1655     51.1419E-03     50.4826E-03
            1243            1655     51.1419E-03     50.4826E-03
            1245            1656     44.6488E-03     44.0408E-03
            1228            1656     44.6488E-03     44.0408E-03
            1244            1656     44.6488E-03     44.0408E-03
            1229            1656     44.6488E-03     44.0408E-03
            1246            1657     38.5188E-03     38.0011E-03
            1245            1657     38.5188E-03     38.0011E-03
            1229            1657     38.5188E-03     38.0011E-03
            1230            1657     38.5188E-03     38.0011E-03
            1247            1658     32.8320E-03     32.7060E-03
            1230            1658     32.8320E-03     32.7060E-03
            1231            1658     32.8320E-03     32.7060E-03
            1246            1658     32.8320E-03     32.7060E-03
            1231            1659     27.9960E-03     28.8105E-03
            1247            1659     27.9960E-03     28.8105E-03
            1248            1659     27.9960E-03     28.8105E-03
            1232            1659     27.9960E-03     28.8105E-03
            1249            1660     25.5418E-03     25.6963E-03
            1248            1660     25.5418E-03     25.6963E-03
            1233            1660     25.5418E-03     25.6963E-03
            1232            1660     25.5418E-03     25.6963E-03
            1235            1661     115.724E-03     118.743E-03
            1251            1661     115.724E-03     118.743E-03
            1234            1661     115.724E-03     118.743E-03
            1250            1661     115.724E-03     118.743E-03
            1236            1662     108.346E-03     111.365E-03
            1252            1662     108.346E-03     111.365E-03
            1235            1662     108.346E-03     111.365E-03
            1251            1662     108.346E-03     111.365E-03
            1236            1663     100.908E-03     103.694E-03
            1252            1663     100.908E-03     103.694E-03
            1253            1663     100.908E-03     103.694E-03
            1237            1663     100.908E-03     103.694E-03
            1254            1664     92.8509E-03     95.3630E-03
            1237            1664     92.8509E-03     95.3630E-03
            1253            1664     92.8509E-03     95.3630E-03
            1238            1664     92.8509E-03     95.3630E-03
            1255            1665     85.1084E-03     87.3552E-03
            1254            1665     85.1084E-03     87.3552E-03
            1238            1665     85.1084E-03     87.3552E-03
            1239            1665     85.1084E-03     87.3552E-03
            1256            1666     77.4386E-03     79.5252E-03
            1239            1666     77.4386E-03     79.5252E-03
            1240            1666     77.4386E-03     79.5252E-03
            1255            1666     77.4386E-03     79.5252E-03
            1240            1667     69.9153E-03     71.9438E-03
            1257            1667     69.9153E-03     71.9438E-03
            1256            1667     69.9153E-03     71.9438E-03
            1241            1667     69.9153E-03     71.9438E-03
            1258            1668     62.5441E-03     64.5294E-03
            1241            1668     62.5441E-03     64.5294E-03
            1257            1668     62.5441E-03     64.5294E-03
            1242            1668     62.5441E-03     64.5294E-03
            1258            1669     55.3258E-03     57.2676E-03
            1242            1669     55.3258E-03     57.2676E-03
            1259            1669     55.3258E-03     57.2676E-03
            1243            1669     55.3258E-03     57.2676E-03
            1243            1670     48.2735E-03     50.1729E-03
            1259            1670     48.2735E-03     50.1729E-03
            1260            1670     48.2735E-03     50.1729E-03
            1244            1670     48.2735E-03     50.1729E-03
            1244            1671     41.4596E-03     43.2825E-03
            1261            1671     41.4596E-03     43.2825E-03
            1245            1671     41.4596E-03     43.2825E-03
            1260            1671     41.4596E-03     43.2825E-03
            1245            1672     34.9324E-03     36.7246E-03
            1262            1672     34.9324E-03     36.7246E-03
            1246            1672     34.9324E-03     36.7246E-03
            1261            1672     34.9324E-03     36.7246E-03
            1262            1673     28.9596E-03     30.7614E-03
            1263            1673     28.9596E-03     30.7614E-03
            1247            1673     28.9596E-03     30.7614E-03
            1246            1673     28.9596E-03     30.7614E-03
            1247            1674     24.3617E-03     25.2905E-03
            1263            1674     24.3617E-03     25.2905E-03
            1264            1674     24.3617E-03     25.2905E-03
            1248            1674     24.3617E-03     25.2905E-03
            1264            1675     21.5801E-03     20.4371E-03
            1265            1675     21.5801E-03     20.4371E-03
            1248            1675     21.5801E-03     20.4371E-03
            1249            1675     21.5801E-03     20.4371E-03
            1266            1676     128.188E-03     129.793E-03
            1267            1676     128.188E-03     129.793E-03
            1251            1676     128.188E-03     129.793E-03
            1250            1676     128.188E-03     129.793E-03
            1268            1677     112.165E-03     116.325E-03
            1267            1677     112.165E-03     116.325E-03
            1252            1677     112.165E-03     116.325E-03
            1251            1677     112.165E-03     116.325E-03
            1269            1678     99.0870E-03     104.407E-03
            1252            1678     99.0870E-03     104.407E-03
            1253            1678     99.0870E-03     104.407E-03
            1268            1678     99.0870E-03     104.407E-03
            1269            1679     90.3821E-03     95.5446E-03
            1253            1679     90.3821E-03     95.5446E-03
            1254            1679     90.3821E-03     95.5446E-03
            1270            1679     90.3821E-03     95.5446E-03
            1254            1680     82.5304E-03     87.4311E-03
            1271            1680     82.5304E-03     87.4311E-03
            1255            1680     82.5304E-03     87.4311E-03
            1270            1680     82.5304E-03     87.4311E-03
            1256            1681     74.8839E-03     79.7154E-03
            1255            1681     74.8839E-03     79.7154E-03
            1271            1681     74.8839E-03     79.7154E-03
            1272            1681     74.8839E-03     79.7154E-03
            1256            1682     67.4119E-03     72.1687E-03
            1273            1682     67.4119E-03     72.1687E-03
            1257            1682     67.4119E-03     72.1687E-03
            1272            1682     67.4119E-03     72.1687E-03
            1274            1683     59.9727E-03     64.7087E-03
            1258            1683     59.9727E-03     64.7087E-03
            1273            1683     59.9727E-03     64.7087E-03
            1257            1683     59.9727E-03     64.7087E-03
            1258            1684     52.6365E-03     57.3287E-03
            1274            1684     52.6365E-03     57.3287E-03
            1275            1684     52.6365E-03     57.3287E-03
            1259            1684     52.6365E-03     57.3287E-03
            1260            1685     45.4013E-03     50.0303E-03
            1275            1685     45.4013E-03     50.0303E-03
            1276            1685     45.4013E-03     50.0303E-03
            1259            1685     45.4013E-03     50.0303E-03
            1260            1686     38.3255E-03     42.8563E-03
            1261            1686     38.3255E-03     42.8563E-03
            1276            1686     38.3255E-03     42.8563E-03
            1277            1686     38.3255E-03     42.8563E-03
            1261            1687     31.5204E-03     35.8779E-03
            1262            1687     31.5204E-03     35.8779E-03
            1278            1687     31.5204E-03     35.8779E-03
            1277            1687     31.5204E-03     35.8779E-03
            1279            1688     25.2579E-03     29.1749E-03
            1262            1688     25.2579E-03     29.1749E-03
            1263            1688     25.2579E-03     29.1749E-03
            1278            1688     25.2579E-03     29.1749E-03
            1263            1689     20.1260E-03     22.6241E-03
            1280            1689     20.1260E-03     22.6241E-03
            1264            1689     20.1260E-03     22.6241E-03
            1279            1689     20.1260E-03     22.6241E-03
            1264            1690     17.0526E-03     17.0207E-03
            1281            1690     17.0526E-03     17.0207E-03
            1265            1690     17.0526E-03     17.0207E-03
            1280            1690     17.0526E-03     17.0207E-03
            1283            1691     133.491E-03     138.921E-03
            1267            1691     133.491E-03     138.921E-03
            1266            1691     133.491E-03     138.921E-03
            1282            1691     133.491E-03     138.921E-03
            1283            1692     109.316E-03     116.333E-03
            1284            1692     109.316E-03     116.333E-03
            1268            1692     109.316E-03     116.333E-03
            1267            1692     109.316E-03     116.333E-03
            1284            1693     96.0212E-03     103.233E-03
            1268            1693     96.0212E-03     103.233E-03
            1285            1693     96.0212E-03     103.233E-03
            1269            1693     96.0212E-03     103.233E-03
            1269            1694     87.0529E-03     94.4064E-03
            1285            1694     87.0529E-03     94.4064E-03
            1286            1694     87.0529E-03     94.4064E-03
            1270            1694     87.0529E-03     94.4064E-03
            1286            1695     79.1603E-03     86.6421E-03
            1271            1695     79.1603E-03     86.6421E-03
            1270            1695     79.1603E-03     86.6421E-03
            1287            1695     79.1603E-03     86.6421E-03
            1272            1696     71.8002E-03     79.3217E-03
            1288            1696     71.8002E-03     79.3217E-03
            1271            1696     71.8002E-03     79.3217E-03
            1287            1696     71.8002E-03     79.3217E-03
            1288            1697     64.4516E-03     72.0101E-03
            1289            1697     64.4516E-03     72.0101E-03
            1272            1697     64.4516E-03     72.0101E-03
            1273            1697     64.4516E-03     72.0101E-03
            1274            1698     57.1495E-03     64.7094E-03
            1289            1698     57.1495E-03     64.7094E-03
            1290            1698     57.1495E-03     64.7094E-03
            1273            1698     57.1495E-03     64.7094E-03
            1290            1699     49.8148E-03     57.3701E-03
            1275            1699     49.8148E-03     57.3701E-03
            1274            1699     49.8148E-03     57.3701E-03
            1291            1699     49.8148E-03     57.3701E-03
            1275            1700     42.5248E-03     50.0473E-03
            1291            1700     42.5248E-03     50.0473E-03
            1292            1700     42.5248E-03     50.0473E-03
            1276            1700     42.5248E-03     50.0473E-03
            1277            1701     35.2931E-03     42.7422E-03
            1293            1701     35.2931E-03     42.7422E-03
            1292            1701     35.2931E-03     42.7422E-03
            1276            1701     35.2931E-03     42.7422E-03
            1294            1702     28.2476E-03     35.4956E-03
            1293            1702     28.2476E-03     35.4956E-03
            1277            1702     28.2476E-03     35.4956E-03
            1278            1702     28.2476E-03     35.4956E-03
            1278            1703     21.5998E-03     28.2356E-03
            1279            1703     21.5998E-03     28.2356E-03
            1294            1703     21.5998E-03     28.2356E-03
            1295            1703     21.5998E-03     28.2356E-03
            1296            1704     15.6551E-03     21.2598E-03
            1280            1704     15.6551E-03     21.2598E-03
            1295            1704     15.6551E-03     21.2598E-03
            1279            1704     15.6551E-03     21.2598E-03
            1281            1705     11.7953E-03     14.6344E-03
            1296            1705     11.7953E-03     14.6344E-03
            1280            1705     11.7953E-03     14.6344E-03
            1297            1705     11.7953E-03     14.6344E-03
            1283            1706     137.695E-03     140.144E-03
            1282            1706     137.695E-03     140.144E-03
            1298            1706     137.695E-03     140.144E-03
            1299            1706     137.695E-03     140.144E-03
            1283            1707     127.105E-03     127.780E-03
            1284            1707     127.105E-03     127.780E-03
            1300            1707     127.105E-03     127.780E-03
            1299            1707     127.105E-03     127.780E-03
            1301            1708     119.371E-03     120.607E-03
            1284            1708     119.371E-03     120.607E-03
            1285            1708     119.371E-03     120.607E-03
            1300            1708     119.371E-03     120.607E-03
            1302            1709     111.587E-03     113.583E-03
            1286            1709     111.587E-03     113.583E-03
            1285            1709     111.587E-03     113.583E-03
            1301            1709     111.587E-03     113.583E-03
            1286            1710     103.726E-03     106.168E-03
            1287            1710     103.726E-03     106.168E-03
            1303            1710     103.726E-03     106.168E-03
            1302            1710     103.726E-03     106.168E-03
            1303            1711     95.5410E-03     98.3511E-03
            1287            1711     95.5410E-03     98.3511E-03
            1304            1711     95.5410E-03     98.3511E-03
            1288            1711     95.5410E-03     98.3511E-03
            1305            1712     87.1668E-03     90.1126E-03
            1304            1712     87.1668E-03     90.1126E-03
            1289            1712     87.1668E-03     90.1126E-03
            1288            1712     87.1668E-03     90.1126E-03
            1306            1713     78.6011E-03     81.6809E-03
            1305            1713     78.6011E-03     81.6809E-03
            1290            1713     78.6011E-03     81.6809E-03
            1289            1713     78.6011E-03     81.6809E-03
            1290            1714     70.0123E-03     73.1591E-03
            1291            1714     70.0123E-03     73.1591E-03
            1307            1714     70.0123E-03     73.1591E-03
            1306            1714     70.0123E-03     73.1591E-03
            1291            1715     61.4197E-03     64.6525E-03
            1308            1715     61.4197E-03     64.6525E-03
            1307            1715     61.4197E-03     64.6525E-03
            1292            1715     61.4197E-03     64.6525E-03
            1309            1716     53.0141E-03     56.2843E-03
            1293            1716     53.0141E-03     56.2843E-03
            1292            1716     53.0141E-03     56.2843E-03
            1308            1716     53.0141E-03     56.2843E-03
            1309            1717     44.8852E-03     48.1653E-03
            1310            1717     44.8852E-03     48.1653E-03
            1294            1717     44.8852E-03     48.1653E-03
            1293            1717     44.8852E-03     48.1653E-03
            1295            1718     37.3248E-03     40.4699E-03
            1294            1718     37.3248E-03     40.4699E-03
            1310            1718     37.3248E-03     40.4699E-03
            1311            1718     37.3248E-03     40.4699E-03
            1312            1719     30.6623E-03     33.7316E-03
            1311            1719     30.6623E-03     33.7316E-03
            1295            1719     30.6623E-03     33.7316E-03
            1296            1719     30.6623E-03     33.7316E-03
            1312            1720     24.6708E-03     29.2198E-03
            1296            1720     24.6708E-03     29.2198E-03
            1313            1720     24.6708E-03     29.2198E-03
            1297            1720     24.6708E-03     29.2198E-03
            1314            1721     150.264E-03     146.988E-03
            1315            1721     150.264E-03     146.988E-03
            1299            1721     150.264E-03     146.988E-03
            1298            1721     150.264E-03     146.988E-03
            1316            1722     151.892E-03     148.844E-03
            1315            1722     151.892E-03     148.844E-03
            1300            1722     151.892E-03     148.844E-03
            1299            1722     151.892E-03     148.844E-03
            1317            1723     148.169E-03     144.974E-03
            1300            1723     148.169E-03     144.974E-03
            1301            1723     148.169E-03     144.974E-03
            1316            1723     148.169E-03     144.974E-03
            1317            1724     140.770E-03     138.006E-03
            1318            1724     140.770E-03     138.006E-03
            1301            1724     140.770E-03     138.006E-03
            1302            1724     140.770E-03     138.006E-03
            1318            1725     131.763E-03     129.326E-03
            1302            1725     131.763E-03     129.326E-03
            1303            1725     131.763E-03     129.326E-03
            1319            1725     131.763E-03     129.326E-03
            1320            1726     121.840E-03     119.624E-03
            1304            1726     121.840E-03     119.624E-03
            1303            1726     121.840E-03     119.624E-03
            1319            1726     121.840E-03     119.624E-03
            1304            1727     111.505E-03     109.510E-03
            1320            1727     111.505E-03     109.510E-03
            1321            1727     111.505E-03     109.510E-03
            1305            1727     111.505E-03     109.510E-03
            1306            1728     101.080E-03     99.1740E-03
            1321            1728     101.080E-03     99.1740E-03
            1322            1728     101.080E-03     99.1740E-03
            1305            1728     101.080E-03     99.1740E-03
            1307            1729     90.6367E-03     88.8465E-03
            1323            1729     90.6367E-03     88.8465E-03
            1306            1729     90.6367E-03     88.8465E-03
            1322            1729     90.6367E-03     88.8465E-03
            1308            1730     80.3653E-03     78.6457E-03
            1323            1730     80.3653E-03     78.6457E-03
            1324            1730     80.3653E-03     78.6457E-03
            1307            1730     80.3653E-03     78.6457E-03
            1324            1731     70.3460E-03     68.7467E-03
            1325            1731     70.3460E-03     68.7467E-03
            1308            1731     70.3460E-03     68.7467E-03
            1309            1731     70.3460E-03     68.7467E-03
            1325            1732     60.8339E-03     59.4029E-03
            1326            1732     60.8339E-03     59.4029E-03
            1310            1732     60.8339E-03     59.4029E-03
            1309            1732     60.8339E-03     59.4029E-03
            1327            1733     51.9922E-03     51.0246E-03
            1310            1733     51.9922E-03     51.0246E-03
            1326            1733     51.9922E-03     51.0246E-03
            1311            1733     51.9922E-03     51.0246E-03
            1312            1734     44.0978E-03     44.7600E-03
            1327            1734     44.0978E-03     44.7600E-03
            1328            1734     44.0978E-03     44.7600E-03
            1311            1734     44.0978E-03     44.7600E-03
            1312            1735     38.0107E-03     42.1721E-03
            1313            1735     38.0107E-03     42.1721E-03
            1328            1735     38.0107E-03     42.1721E-03
            1329            1735     38.0107E-03     42.1721E-03
            1315            1736     164.382E-03     166.722E-03
            1331            1736     164.382E-03     166.722E-03
            1314            1736     164.382E-03     166.722E-03
            1330            1736     164.382E-03     166.722E-03
            1331            1737     160.625E-03     162.675E-03
            1316            1737     160.625E-03     162.675E-03
            1332            1737     160.625E-03     162.675E-03
            1315            1737     160.625E-03     162.675E-03
            1332            1738     154.631E-03     155.828E-03
            1316            1738     154.631E-03     155.828E-03
            1317            1738     154.631E-03     155.828E-03
            1333            1738     154.631E-03     155.828E-03
            1317            1739     145.351E-03     145.840E-03
            1334            1739     145.351E-03     145.840E-03
            1333            1739     145.351E-03     145.840E-03
            1318            1739     145.351E-03     145.840E-03
            1319            1740     134.455E-03     134.652E-03
            1335            1740     134.455E-03     134.652E-03
            1318            1740     134.455E-03     134.652E-03
            1334            1740     134.455E-03     134.652E-03
            1320            1741     122.970E-03     123.132E-03
            1335            1741     122.970E-03     123.132E-03
            1336            1741     122.970E-03     123.132E-03
            1319            1741     122.970E-03     123.132E-03
            1321            1742     111.484E-03     111.583E-03
            1336            1742     111.484E-03     111.583E-03
            1337            1742     111.484E-03     111.583E-03
            1320            1742     111.484E-03     111.583E-03
            1322            1743     100.027E-03     100.135E-03
            1338            1743     100.027E-03     100.135E-03
            1321            1743     100.027E-03     100.135E-03
            1337            1743     100.027E-03     100.135E-03
            1323            1744     88.7500E-03     88.8417E-03
            1339            1744     88.7500E-03     88.8417E-03
            1338            1744     88.7500E-03     88.8417E-03
            1322            1744     88.7500E-03     88.8417E-03
            1323            1745     77.6720E-03     77.7609E-03
            1339            1745     77.6720E-03     77.7609E-03
            1324            1745     77.6720E-03     77.7609E-03
            1340            1745     77.6720E-03     77.7609E-03
            1340            1746     66.8693E-03     67.0031E-03
            1324            1746     66.8693E-03     67.0031E-03
            1325            1746     66.8693E-03     67.0031E-03
            1341            1746     66.8693E-03     67.0031E-03
            1325            1747     56.4631E-03     56.7860E-03
            1326            1747     56.4631E-03     56.7860E-03
            1342            1747     56.4631E-03     56.7860E-03
            1341            1747     56.4631E-03     56.7860E-03
            1342            1748     46.5929E-03     47.5814E-03
            1326            1748     46.5929E-03     47.5814E-03
            1343            1748     46.5929E-03     47.5814E-03
            1327            1748     46.5929E-03     47.5814E-03
            1327            1749     37.8574E-03     40.4682E-03
            1344            1749     37.8574E-03     40.4682E-03
            1328            1749     37.8574E-03     40.4682E-03
            1343            1749     37.8574E-03     40.4682E-03
            1345            1750     32.7747E-03     34.8775E-03
            1328            1750     32.7747E-03     34.8775E-03
            1329            1750     32.7747E-03     34.8775E-03
            1344            1750     32.7747E-03     34.8775E-03
            1330            1751     178.639E-03     181.852E-03
            1331            1751     178.639E-03     181.852E-03
            1346            1751     178.639E-03     181.852E-03
            1347            1751     178.639E-03     181.852E-03
            1348            1752     168.779E-03     173.516E-03
            1347            1752     168.779E-03     173.516E-03
            1331            1752     168.779E-03     173.516E-03
            1332            1752     168.779E-03     173.516E-03
            1348            1753     159.051E-03     163.020E-03
            1333            1753     159.051E-03     163.020E-03
            1332            1753     159.051E-03     163.020E-03
            1349            1753     159.051E-03     163.020E-03
            1333            1754     147.447E-03     150.661E-03
            1349            1754     147.447E-03     150.661E-03
            1334            1754     147.447E-03     150.661E-03
            1350            1754     147.447E-03     150.661E-03
            1335            1755     135.027E-03     137.839E-03
            1351            1755     135.027E-03     137.839E-03
            1334            1755     135.027E-03     137.839E-03
            1350            1755     135.027E-03     137.839E-03
            1352            1756     122.797E-03     125.269E-03
            1335            1756     122.797E-03     125.269E-03
            1351            1756     122.797E-03     125.269E-03
            1336            1756     122.797E-03     125.269E-03
            1337            1757     110.593E-03     112.896E-03
            1353            1757     110.593E-03     112.896E-03
            1352            1757     110.593E-03     112.896E-03
            1336            1757     110.593E-03     112.896E-03
            1353            1758     98.5907E-03     100.787E-03
            1337            1758     98.5907E-03     100.787E-03
            1354            1758     98.5907E-03     100.787E-03
            1338            1758     98.5907E-03     100.787E-03
            1354            1759     86.7592E-03     88.8841E-03
            1339            1759     86.7592E-03     88.8841E-03
            1338            1759     86.7592E-03     88.8841E-03
            1355            1759     86.7592E-03     88.8841E-03
            1355            1760     75.1173E-03     77.2031E-03
            1356            1760     75.1173E-03     77.2031E-03
            1339            1760     75.1173E-03     77.2031E-03
            1340            1760     75.1173E-03     77.2031E-03
            1340            1761     63.7132E-03     65.8076E-03
            1356            1761     63.7132E-03     65.8076E-03
            1357            1761     63.7132E-03     65.8076E-03
            1341            1761     63.7132E-03     65.8076E-03
            1342            1762     52.5965E-03     54.8224E-03
            1358            1762     52.5965E-03     54.8224E-03
            1341            1762     52.5965E-03     54.8224E-03
            1357            1762     52.5965E-03     54.8224E-03
            1358            1763     41.9630E-03     44.7314E-03
            1359            1763     41.9630E-03     44.7314E-03
            1343            1763     41.9630E-03     44.7314E-03
            1342            1763     41.9630E-03     44.7314E-03
            1360            1764     32.9307E-03     35.5297E-03
            1359            1764     32.9307E-03     35.5297E-03
            1343            1764     32.9307E-03     35.5297E-03
            1344            1764     32.9307E-03     35.5297E-03
            1361            1765     26.8664E-03     27.3095E-03
            1345            1765     26.8664E-03     27.3095E-03
            1360            1765     26.8664E-03     27.3095E-03
            1344            1765     26.8664E-03     27.3095E-03
            1346            1766     190.567E-03     195.156E-03
            1347            1766     190.567E-03     195.156E-03
            1362            1766     190.567E-03     195.156E-03
            1363            1766     190.567E-03     195.156E-03
            1348            1767     176.151E-03     181.104E-03
            1363            1767     176.151E-03     181.104E-03
            1364            1767     176.151E-03     181.104E-03
            1347            1767     176.151E-03     181.104E-03
            1348            1768     160.809E-03     166.253E-03
            1349            1768     160.809E-03     166.253E-03
            1364            1768     160.809E-03     166.253E-03
            1365            1768     160.809E-03     166.253E-03
            1349            1769     146.445E-03     151.881E-03
            1365            1769     146.445E-03     151.881E-03
            1350            1769     146.445E-03     151.881E-03
            1366            1769     146.445E-03     151.881E-03
            1351            1770     133.565E-03     138.541E-03
            1367            1770     133.565E-03     138.541E-03
            1366            1770     133.565E-03     138.541E-03
            1350            1770     133.565E-03     138.541E-03
            1352            1771     120.972E-03     125.602E-03
            1367            1771     120.972E-03     125.602E-03
            1368            1771     120.972E-03     125.602E-03
            1351            1771     120.972E-03     125.602E-03
            1352            1772     108.645E-03     113.096E-03
            1369            1772     108.645E-03     113.096E-03
            1353            1772     108.645E-03     113.096E-03
            1368            1772     108.645E-03     113.096E-03
            1353            1773     96.4783E-03     100.798E-03
            1354            1773     96.4783E-03     100.798E-03
            1369            1773     96.4783E-03     100.798E-03
            1370            1773     96.4783E-03     100.798E-03
            1370            1774     84.4280E-03     88.6815E-03
            1354            1774     84.4280E-03     88.6815E-03
            1371            1774     84.4280E-03     88.6815E-03
            1355            1774     84.4280E-03     88.6815E-03
            1355            1775     72.5183E-03     76.7180E-03
            1356            1775     72.5183E-03     76.7180E-03
            1371            1775     72.5183E-03     76.7180E-03
            1372            1775     72.5183E-03     76.7180E-03
            1356            1776     60.7444E-03     64.9171E-03
            1357            1776     60.7444E-03     64.9171E-03
            1372            1776     60.7444E-03     64.9171E-03
            1373            1776     60.7444E-03     64.9171E-03
            1357            1777     49.1761E-03     53.3953E-03
            1358            1777     49.1761E-03     53.3953E-03
            1373            1777     49.1761E-03     53.3953E-03
            1374            1777     49.1761E-03     53.3953E-03
            1375            1778     38.1058E-03     42.2244E-03
            1358            1778     38.1058E-03     42.2244E-03
            1359            1778     38.1058E-03     42.2244E-03
            1374            1778     38.1058E-03     42.2244E-03
            1375            1779     28.0981E-03     31.3985E-03
            1360            1779     28.0981E-03     31.3985E-03
            1359            1779     28.0981E-03     31.3985E-03
            1376            1779     28.0981E-03     31.3985E-03
            1376            1780     20.8039E-03     22.0873E-03
            1377            1780     20.8039E-03     22.0873E-03
            1360            1780     20.8039E-03     22.0873E-03
            1361            1780     20.8039E-03     22.0873E-03
            1379            1781     202.023E-03     204.507E-03
            1362            1781     202.023E-03     204.507E-03
            1378            1781     202.023E-03     204.507E-03
            1363            1781     202.023E-03     204.507E-03
            1363            1782     178.721E-03     184.093E-03
            1380            1782     178.721E-03     184.093E-03
            1364            1782     178.721E-03     184.093E-03
            1379            1782     178.721E-03     184.093E-03
            1381            1783     158.186E-03     165.110E-03
            1380            1783     158.186E-03     165.110E-03
            1364            1783     158.186E-03     165.110E-03
            1365            1783     158.186E-03     165.110E-03
            1382            1784     143.362E-03     150.297E-03
            1381            1784     143.362E-03     150.297E-03
            1365            1784     143.362E-03     150.297E-03
            1366            1784     143.362E-03     150.297E-03
            1383            1785     130.296E-03     136.998E-03
            1366            1785     130.296E-03     136.998E-03
            1367            1785     130.296E-03     136.998E-03
            1382            1785     130.296E-03     136.998E-03
            1383            1786     117.878E-03     124.486E-03
            1384            1786     117.878E-03     124.486E-03
            1367            1786     117.878E-03     124.486E-03
            1368            1786     117.878E-03     124.486E-03
            1368            1787     105.780E-03     112.277E-03
            1384            1787     105.780E-03     112.277E-03
            1369            1787     105.780E-03     112.277E-03
            1385            1787     105.780E-03     112.277E-03
            1369            1788     93.7395E-03     100.214E-03
            1386            1788     93.7395E-03     100.214E-03
            1385            1788     93.7395E-03     100.214E-03
            1370            1788     93.7395E-03     100.214E-03
            1370            1789     81.7705E-03     88.2129E-03
            1387            1789     81.7705E-03     88.2129E-03
            1371            1789     81.7705E-03     88.2129E-03
            1386            1789     81.7705E-03     88.2129E-03
            1371            1790     69.8292E-03     76.2397E-03
            1387            1790     69.8292E-03     76.2397E-03
            1372            1790     69.8292E-03     76.2397E-03
            1388            1790     69.8292E-03     76.2397E-03
            1373            1791     57.9536E-03     64.3150E-03
            1372            1791     57.9536E-03     64.3150E-03
            1389            1791     57.9536E-03     64.3150E-03
            1388            1791     57.9536E-03     64.3150E-03
            1390            1792     46.1935E-03     52.4547E-03
            1374            1792     46.1935E-03     52.4547E-03
            1389            1792     46.1935E-03     52.4547E-03
            1373            1792     46.1935E-03     52.4547E-03
            1391            1793     34.7443E-03     40.5369E-03
            1375            1793     34.7443E-03     40.5369E-03
            1390            1793     34.7443E-03     40.5369E-03
            1374            1793     34.7443E-03     40.5369E-03
            1375            1794     23.8916E-03     28.8718E-03
            1391            1794     23.8916E-03     28.8718E-03
            1376            1794     23.8916E-03     28.8718E-03
            1392            1794     23.8916E-03     28.8718E-03
            1376            1795     15.0362E-03     17.7912E-03
            1377            1795     15.0362E-03     17.7912E-03
            1393            1795     15.0362E-03     17.7912E-03
            1392            1795     15.0362E-03     17.7912E-03
            1394            1796     204.915E-03     210.601E-03
            1378            1796     204.915E-03     210.601E-03
            1395            1796     204.915E-03     210.601E-03
            1379            1796     204.915E-03     210.601E-03
            1395            1797     173.102E-03     180.600E-03
            1379            1797     173.102E-03     180.600E-03
            1396            1797     173.102E-03     180.600E-03
            1380            1797     173.102E-03     180.600E-03
            1380            1798     153.412E-03     161.029E-03
            1381            1798     153.412E-03     161.029E-03
            1396            1798     153.412E-03     161.029E-03
            1397            1798     153.412E-03     161.029E-03
            1382            1799     138.955E-03     146.870E-03
            1381            1799     138.955E-03     146.870E-03
            1397            1799     138.955E-03     146.870E-03
            1398            1799     138.955E-03     146.870E-03
            1398            1800     126.055E-03     134.295E-03
            1383            1800     126.055E-03     134.295E-03
            1399            1800     126.055E-03     134.295E-03
            1382            1800     126.055E-03     134.295E-03
            1399            1801     114.115E-03     122.544E-03
            1400            1801     114.115E-03     122.544E-03
            1383            1801     114.115E-03     122.544E-03
            1384            1801     114.115E-03     122.544E-03
            1384            1802     102.346E-03     110.921E-03
            1401            1802     102.346E-03     110.921E-03
            1400            1802     102.346E-03     110.921E-03
            1385            1802     102.346E-03     110.921E-03
            1386            1803     90.6761E-03     99.3286E-03
            1401            1803     90.6761E-03     99.3286E-03
            1402            1803     90.6761E-03     99.3286E-03
            1385            1803     90.6761E-03     99.3286E-03
            1403            1804     78.9598E-03     87.6570E-03
            1402            1804     78.9598E-03     87.6570E-03
            1386            1804     78.9598E-03     87.6570E-03
            1387            1804     78.9598E-03     87.6570E-03
            1388            1805     67.2112E-03     75.9242E-03
            1387            1805     67.2112E-03     75.9242E-03
            1404            1805     67.2112E-03     75.9242E-03
            1403            1805     67.2112E-03     75.9242E-03
            1404            1806     55.4475E-03     64.1172E-03
            1388            1806     55.4475E-03     64.1172E-03
            1405            1806     55.4475E-03     64.1172E-03
            1389            1806     55.4475E-03     64.1172E-03
            1406            1807     43.7402E-03     52.1878E-03
            1390            1807     43.7402E-03     52.1878E-03
            1405            1807     43.7402E-03     52.1878E-03
            1389            1807     43.7402E-03     52.1878E-03
            1407            1808     32.1134E-03     40.1711E-03
            1406            1808     32.1134E-03     40.1711E-03
            1391            1808     32.1134E-03     40.1711E-03
            1390            1808     32.1134E-03     40.1711E-03
            1407            1809     20.9037E-03     27.8842E-03
            1392            1809     20.9037E-03     27.8842E-03
            1391            1809     20.9037E-03     27.8842E-03
            1408            1809     20.9037E-03     27.8842E-03
            1409            1810     10.5467E-03     15.6709E-03
            1408            1810     10.5467E-03     15.6709E-03
            1392            1810     10.5467E-03     15.6709E-03
            1393            1810     10.5467E-03     15.6709E-03
            1411            1811     206.547E-03     209.959E-03
            1394            1811     206.547E-03     209.959E-03
            1410            1811     206.547E-03     209.959E-03
            1395            1811     206.547E-03     209.959E-03
            1411            1812     189.765E-03     190.432E-03
            1412            1812     189.765E-03     190.432E-03
            1396            1812     189.765E-03     190.432E-03
            1395            1812     189.765E-03     190.432E-03
            1396            1813     176.976E-03     178.302E-03
            1397            1813     176.976E-03     178.302E-03
            1412            1813     176.976E-03     178.302E-03
            1413            1813     176.976E-03     178.302E-03
            1398            1814     164.341E-03     166.708E-03
            1413            1814     164.341E-03     166.708E-03
            1414            1814     164.341E-03     166.708E-03
            1397            1814     164.341E-03     166.708E-03
            1414            1815     151.967E-03     155.000E-03
            1415            1815     151.967E-03     155.000E-03
            1399            1815     151.967E-03     155.000E-03
            1398            1815     151.967E-03     155.000E-03
            1399            1816     139.341E-03     142.971E-03
            1415            1816     139.341E-03     142.971E-03
            1416            1816     139.341E-03     142.971E-03
            1400            1816     139.341E-03     142.971E-03
            1416            1817     126.650E-03     130.518E-03
            1417            1817     126.650E-03     130.518E-03
            1401            1817     126.650E-03     130.518E-03
            1400            1817     126.650E-03     130.518E-03
            1401            1818     113.757E-03     117.840E-03
            1417            1818     113.757E-03     117.840E-03
            1418            1818     113.757E-03     117.840E-03
            1402            1818     113.757E-03     117.840E-03
            1403            1819     100.833E-03     105.011E-03
            1418            1819     100.833E-03     105.011E-03
            1419            1819     100.833E-03     105.011E-03
            1402            1819     100.833E-03     105.011E-03
            1420            1820     87.8856E-03     92.1445E-03
            1403            1820     87.8856E-03     92.1445E-03
            1419            1820     87.8856E-03     92.1445E-03
            1404            1820     87.8856E-03     92.1445E-03
            1405            1821     75.0929E-03     79.3632E-03
            1404            1821     75.0929E-03     79.3632E-03
            1420            1821     75.0929E-03     79.3632E-03
            1421            1821     75.0929E-03     79.3632E-03
            1422            1822     62.6056E-03     66.8063E-03
            1406            1822     62.6056E-03     66.8063E-03
            1405            1822     62.6056E-03     66.8063E-03
            1421            1822     62.6056E-03     66.8063E-03
            1406            1823     50.7284E-03     54.6550E-03
            1422            1823     50.7284E-03     54.6550E-03
            1407            1823     50.7284E-03     54.6550E-03
            1423            1823     50.7284E-03     54.6550E-03
            1424            1824     39.7460E-03     43.5683E-03
            1408            1824     39.7460E-03     43.5683E-03
            1423            1824     39.7460E-03     43.5683E-03
            1407            1824     39.7460E-03     43.5683E-03
            1408            1825     29.2008E-03     34.8971E-03
            1409            1825     29.2008E-03     34.8971E-03
            1425            1825     29.2008E-03     34.8971E-03
            1424            1825     29.2008E-03     34.8971E-03
            1410            1826     220.762E-03     217.923E-03
            1411            1826     220.762E-03     217.923E-03
            1427            1826     220.762E-03     217.923E-03
            1426            1826     220.762E-03     217.923E-03
            1412            1827     216.702E-03     214.559E-03
            1427            1827     216.702E-03     214.559E-03
            1428            1827     216.702E-03     214.559E-03
            1411            1827     216.702E-03     214.559E-03
            1412            1828     208.048E-03     205.759E-03
            1428            1828     208.048E-03     205.759E-03
            1429            1828     208.048E-03     205.759E-03
            1413            1828     208.048E-03     205.759E-03
            1429            1829     196.044E-03     194.312E-03
            1414            1829     196.044E-03     194.312E-03
            1430            1829     196.044E-03     194.312E-03
            1413            1829     196.044E-03     194.312E-03
            1415            1830     182.471E-03     181.173E-03
            1431            1830     182.471E-03     181.173E-03
            1430            1830     182.471E-03     181.173E-03
            1414            1830     182.471E-03     181.173E-03
            1415            1831     168.017E-03     167.002E-03
            1432            1831     168.017E-03     167.002E-03
            1431            1831     168.017E-03     167.002E-03
            1416            1831     168.017E-03     167.002E-03
            1417            1832     153.128E-03     152.382E-03
            1416            1832     153.128E-03     152.382E-03
            1432            1832     153.128E-03     152.382E-03
            1433            1832     153.128E-03     152.382E-03
            1433            1833     138.151E-03     137.496E-03
            1434            1833     138.151E-03     137.496E-03
            1417            1833     138.151E-03     137.496E-03
            1418            1833     138.151E-03     137.496E-03
            1434            1834     123.136E-03     122.589E-03
            1435            1834     123.136E-03     122.589E-03
            1419            1834     123.136E-03     122.589E-03
            1418            1834     123.136E-03     122.589E-03
            1419            1835     108.303E-03     107.788E-03
            1435            1835     108.303E-03     107.788E-03
            1436            1835     108.303E-03     107.788E-03
            1420            1835     108.303E-03     107.788E-03
            1436            1836     93.7481E-03     93.2945E-03
            1437            1836     93.7481E-03     93.2945E-03
            1421            1836     93.7481E-03     93.2945E-03
            1420            1836     93.7481E-03     93.2945E-03
            1437            1837     79.8005E-03     79.3947E-03
            1421            1837     79.8005E-03     79.3947E-03
            1422            1837     79.8005E-03     79.3947E-03
            1438            1837     79.8005E-03     79.3947E-03
            1439            1838     66.7017E-03     66.6130E-03
            1422            1838     66.7017E-03     66.6130E-03
            1438            1838     66.7017E-03     66.6130E-03
            1423            1838     66.7017E-03     66.6130E-03
            1423            1839     54.9528E-03     56.4537E-03
            1439            1839     54.9528E-03     56.4537E-03
            1440            1839     54.9528E-03     56.4537E-03
            1424            1839     54.9528E-03     56.4537E-03
            1440            1840     45.8251E-03     51.4012E-03
            1425            1840     45.8251E-03     51.4012E-03
            1441            1840     45.8251E-03     51.4012E-03
            1424            1840     45.8251E-03     51.4012E-03
            1443            1841     237.046E-03     240.450E-03
            1427            1841     237.046E-03     240.450E-03
            1426            1841     237.046E-03     240.450E-03
            1442            1841     237.046E-03     240.450E-03
            1443            1842     228.226E-03     231.777E-03
            1428            1842     228.226E-03     231.777E-03
            1427            1842     228.226E-03     231.777E-03
            1444            1842     228.226E-03     231.777E-03
            1445            1843     216.583E-03     219.419E-03
            1428            1843     216.583E-03     219.419E-03
            1429            1843     216.583E-03     219.419E-03
            1444            1843     216.583E-03     219.419E-03
            1429            1844     202.238E-03     204.214E-03
            1446            1844     202.238E-03     204.214E-03
            1445            1844     202.238E-03     204.214E-03
            1430            1844     202.238E-03     204.214E-03
            1447            1845     186.375E-03     187.959E-03
            1430            1845     186.375E-03     187.959E-03
            1431            1845     186.375E-03     187.959E-03
            1446            1845     186.375E-03     187.959E-03
            1448            1846     170.001E-03     171.516E-03
            1431            1846     170.001E-03     171.516E-03
            1432            1846     170.001E-03     171.516E-03
            1447            1846     170.001E-03     171.516E-03
            1449            1847     153.685E-03     155.093E-03
            1448            1847     153.685E-03     155.093E-03
            1433            1847     153.685E-03     155.093E-03
            1432            1847     153.685E-03     155.093E-03
            1450            1848     137.402E-03     138.807E-03
            1434            1848     137.402E-03     138.807E-03
            1449            1848     137.402E-03     138.807E-03
            1433            1848     137.402E-03     138.807E-03
            1434            1849     121.315E-03     122.682E-03
            1451            1849     121.315E-03     122.682E-03
            1435            1849     121.315E-03     122.682E-03
            1450            1849     121.315E-03     122.682E-03
            1436            1850     105.429E-03     106.769E-03
            1451            1850     105.429E-03     106.769E-03
            1435            1850     105.429E-03     106.769E-03
            1452            1850     105.429E-03     106.769E-03
            1452            1851     89.8224E-03     91.1795E-03
            1437            1851     89.8224E-03     91.1795E-03
            1436            1851     89.8224E-03     91.1795E-03
            1453            1851     89.8224E-03     91.1795E-03
            1454            1852     74.6193E-03     76.1716E-03
            1453            1852     74.6193E-03     76.1716E-03
            1438            1852     74.6193E-03     76.1716E-03
            1437            1852     74.6193E-03     76.1716E-03
            1454            1853     60.0140E-03     62.2543E-03
            1439            1853     60.0140E-03     62.2543E-03
            1455            1853     60.0140E-03     62.2543E-03
            1438            1853     60.0140E-03     62.2543E-03
            1455            1854     46.6655E-03     50.9583E-03
            1439            1854     46.6655E-03     50.9583E-03
            1440            1854     46.6655E-03     50.9583E-03
            1456            1854     46.6655E-03     50.9583E-03
            1440            1855     38.1755E-03     42.0037E-03
            1456            1855     38.1755E-03     42.0037E-03
            1441            1855     38.1755E-03     42.0037E-03
            1457            1855     38.1755E-03     42.0037E-03
            1442            1856     251.910E-03     256.743E-03
            1458            1856     251.910E-03     256.743E-03
            1443            1856     251.910E-03     256.743E-03
            1459            1856     251.910E-03     256.743E-03
            1459            1857     237.556E-03     244.201E-03
            1460            1857     237.556E-03     244.201E-03
            1444            1857     237.556E-03     244.201E-03
            1443            1857     237.556E-03     244.201E-03
            1445            1858     222.361E-03     228.193E-03
            1444            1858     222.361E-03     228.193E-03
            1460            1858     222.361E-03     228.193E-03
            1461            1858     222.361E-03     228.193E-03
            1446            1859     205.228E-03     210.192E-03
            1461            1859     205.228E-03     210.192E-03
            1462            1859     205.228E-03     210.192E-03
            1445            1859     205.228E-03     210.192E-03
            1462            1860     187.604E-03     191.997E-03
            1463            1860     187.604E-03     191.997E-03
            1447            1860     187.604E-03     191.997E-03
            1446            1860     187.604E-03     191.997E-03
            1447            1861     170.314E-03     174.233E-03
            1464            1861     170.314E-03     174.233E-03
            1448            1861     170.314E-03     174.233E-03
            1463            1861     170.314E-03     174.233E-03
            1448            1862     153.114E-03     156.795E-03
            1464            1862     153.114E-03     156.795E-03
            1449            1862     153.114E-03     156.795E-03
            1465            1862     153.114E-03     156.795E-03
            1466            1863     136.155E-03     139.684E-03
            1450            1863     136.155E-03     139.684E-03
            1465            1863     136.155E-03     139.684E-03
            1449            1863     136.155E-03     139.684E-03
            1466            1864     119.379E-03     122.814E-03
            1467            1864     119.379E-03     122.814E-03
            1451            1864     119.379E-03     122.814E-03
            1450            1864     119.379E-03     122.814E-03
            1452            1865     102.791E-03     106.177E-03
            1467            1865     102.791E-03     106.177E-03
            1468            1865     102.791E-03     106.177E-03
            1451            1865     102.791E-03     106.177E-03
            1468            1866     86.4198E-03     89.8271E-03
            1469            1866     86.4198E-03     89.8271E-03
            1452            1866     86.4198E-03     89.8271E-03
            1453            1866     86.4198E-03     89.8271E-03
            1453            1867     70.2791E-03     73.8910E-03
            1454            1867     70.2791E-03     73.8910E-03
            1469            1867     70.2791E-03     73.8910E-03
            1470            1867     70.2791E-03     73.8910E-03
            1454            1868     54.4850E-03     58.9702E-03
            1455            1868     54.4850E-03     58.9702E-03
            1471            1868     54.4850E-03     58.9702E-03
            1470            1868     54.4850E-03     58.9702E-03
            1471            1869     40.3597E-03     45.0681E-03
            1472            1869     40.3597E-03     45.0681E-03
            1455            1869     40.3597E-03     45.0681E-03
            1456            1869     40.3597E-03     45.0681E-03
            1473            1870     30.1208E-03     32.2837E-03
            1472            1870     30.1208E-03     32.2837E-03
            1457            1870     30.1208E-03     32.2837E-03
            1456            1870     30.1208E-03     32.2837E-03
            1459            1871     263.866E-03     270.076E-03
            1474            1871     263.866E-03     270.076E-03
            1475            1871     263.866E-03     270.076E-03
            1458            1871     263.866E-03     270.076E-03
            1476            1872     244.933E-03     251.794E-03
            1475            1872     244.933E-03     251.794E-03
            1460            1872     244.933E-03     251.794E-03
            1459            1872     244.933E-03     251.794E-03
            1461            1873     224.122E-03     231.434E-03
            1477            1873     224.122E-03     231.434E-03
            1476            1873     224.122E-03     231.434E-03
            1460            1873     224.122E-03     231.434E-03
            1461            1874     204.222E-03     211.418E-03
            1462            1874     204.222E-03     211.418E-03
            1478            1874     204.222E-03     211.418E-03
            1477            1874     204.222E-03     211.418E-03
            1463            1875     186.132E-03     192.703E-03
            1478            1875     186.132E-03     192.703E-03
            1479            1875     186.132E-03     192.703E-03
            1462            1875     186.132E-03     192.703E-03
            1464            1876     168.475E-03     174.568E-03
            1479            1876     168.475E-03     174.568E-03
            1463            1876     168.475E-03     174.568E-03
            1480            1876     168.475E-03     174.568E-03
            1465            1877     151.149E-03     156.996E-03
            1481            1877     151.149E-03     156.996E-03
            1480            1877     151.149E-03     156.996E-03
            1464            1877     151.149E-03     156.996E-03
            1465            1878     134.020E-03     139.695E-03
            1482            1878     134.020E-03     139.695E-03
            1481            1878     134.020E-03     139.695E-03
            1466            1878     134.020E-03     139.695E-03
            1482            1879     117.015E-03     122.609E-03
            1483            1879     117.015E-03     122.609E-03
            1466            1879     117.015E-03     122.609E-03
            1467            1879     117.015E-03     122.609E-03
            1468            1880     100.143E-03     105.683E-03
            1483            1880     100.143E-03     105.683E-03
            1484            1880     100.143E-03     105.683E-03
            1467            1880     100.143E-03     105.683E-03
            1484            1881     83.3715E-03     88.9141E-03
            1485            1881     83.3715E-03     88.9141E-03
            1468            1881     83.3715E-03     88.9141E-03
            1469            1881     83.3715E-03     88.9141E-03
            1470            1882     66.7182E-03     72.4103E-03
            1485            1882     66.7182E-03     72.4103E-03
            1486            1882     66.7182E-03     72.4103E-03
            1469            1882     66.7182E-03     72.4103E-03
            1486            1883     50.3600E-03     56.3068E-03
            1487            1883     50.3600E-03     56.3068E-03
            1470            1883     50.3600E-03     56.3068E-03
            1471            1883     50.3600E-03     56.3068E-03
            1487            1884     34.7839E-03     40.5181E-03
            1471            1884     34.7839E-03     40.5181E-03
            1488            1884     34.7839E-03     40.5181E-03
            1472            1884     34.7839E-03     40.5181E-03
            1488            1885     22.2944E-03     26.0409E-03
            1473            1885     22.2944E-03     26.0409E-03
            1489            1885     22.2944E-03     26.0409E-03
            1472            1885     22.2944E-03     26.0409E-03
            1474            1886     274.785E-03     278.317E-03
            1475            1886     274.785E-03     278.317E-03
            1490            1886     274.785E-03     278.317E-03
            1491            1886     274.785E-03     278.317E-03
            1475            1887     246.333E-03     253.210E-03
            1492            1887     246.333E-03     253.210E-03
            1476            1887     246.333E-03     253.210E-03
            1491            1887     246.333E-03     253.210E-03
            1493            1888     220.145E-03     228.722E-03
            1477            1888     220.145E-03     228.722E-03
            1476            1888     220.145E-03     228.722E-03
            1492            1888     220.145E-03     228.722E-03
            1494            1889     200.239E-03     208.688E-03
            1478            1889     200.239E-03     208.688E-03
            1493            1889     200.239E-03     208.688E-03
            1477            1889     200.239E-03     208.688E-03
            1479            1890     182.193E-03     190.317E-03
            1494            1890     182.193E-03     190.317E-03
            1478            1890     182.193E-03     190.317E-03
            1495            1890     182.193E-03     190.317E-03
            1495            1891     164.874E-03     172.878E-03
            1479            1891     164.874E-03     172.878E-03
            1496            1891     164.874E-03     172.878E-03
            1480            1891     164.874E-03     172.878E-03
            1496            1892     147.933E-03     155.793E-03
            1481            1892     147.933E-03     155.793E-03
            1480            1892     147.933E-03     155.793E-03
            1497            1892     147.933E-03     155.793E-03
            1482            1893     131.048E-03     138.887E-03
            1497            1893     131.048E-03     138.887E-03
            1481            1893     131.048E-03     138.887E-03
            1498            1893     131.048E-03     138.887E-03
            1482            1894     114.241E-03     122.044E-03
            1499            1894     114.241E-03     122.044E-03
            1483            1894     114.241E-03     122.044E-03
            1498            1894     114.241E-03     122.044E-03
            1484            1895     97.4448E-03     105.220E-03
            1500            1895     97.4448E-03     105.220E-03
            1483            1895     97.4448E-03     105.220E-03
            1499            1895     97.4448E-03     105.220E-03
            1500            1896     80.6810E-03     88.4242E-03
            1501            1896     80.6810E-03     88.4242E-03
            1485            1896     80.6810E-03     88.4242E-03
            1484            1896     80.6810E-03     88.4242E-03
            1486            1897     63.9620E-03     71.6829E-03
            1502            1897     63.9620E-03     71.6829E-03
            1485            1897     63.9620E-03     71.6829E-03
            1501            1897     63.9620E-03     71.6829E-03
            1503            1898     47.4437E-03     54.7976E-03
            1487            1898     47.4437E-03     54.7976E-03
            1502            1898     47.4437E-03     54.7976E-03
            1486            1898     47.4437E-03     54.7976E-03
            1488            1899     31.0499E-03     38.2624E-03
            1503            1899     31.0499E-03     38.2624E-03
            1504            1899     31.0499E-03     38.2624E-03
            1487            1899     31.0499E-03     38.2624E-03
            1488            1900     15.7031E-03     22.3742E-03
            1505            1900     15.7031E-03     22.3742E-03
            1489            1900     15.7031E-03     22.3742E-03
            1504            1900     15.7031E-03     22.3742E-03
            1491            1901     275.543E-03     281.697E-03
            1507            1901     275.543E-03     281.697E-03
            1506            1901     275.543E-03     281.697E-03
            1490            1901     275.543E-03     281.697E-03
            1492            1902     237.921E-03     246.331E-03
            1491            1902     237.921E-03     246.331E-03
            1508            1902     237.921E-03     246.331E-03
            1507            1902     237.921E-03     246.331E-03
            1493            1903     213.298E-03     221.839E-03
            1492            1903     213.298E-03     221.839E-03
            1508            1903     213.298E-03     221.839E-03
            1509            1903     213.298E-03     221.839E-03
            1510            1904     194.220E-03     203.202E-03
            1509            1904     194.220E-03     203.202E-03
            1493            1904     194.220E-03     203.202E-03
            1494            1904     194.220E-03     203.202E-03
            1511            1905     176.734E-03     186.164E-03
            1510            1905     176.734E-03     186.164E-03
            1494            1905     176.734E-03     186.164E-03
            1495            1905     176.734E-03     186.164E-03
            1511            1906     160.243E-03     169.941E-03
            1495            1906     160.243E-03     169.941E-03
            1512            1906     160.243E-03     169.941E-03
            1496            1906     160.243E-03     169.941E-03
            1512            1907     143.895E-03     153.804E-03
            1496            1907     143.895E-03     153.804E-03
            1497            1907     143.895E-03     153.804E-03
            1513            1907     143.895E-03     153.804E-03
            1514            1908     127.642E-03     137.652E-03
            1497            1908     127.642E-03     137.652E-03
            1513            1908     127.642E-03     137.652E-03
            1498            1908     127.642E-03     137.652E-03
            1498            1909     111.309E-03     121.383E-03
            1515            1909     111.309E-03     121.383E-03
            1499            1909     111.309E-03     121.383E-03
            1514            1909     111.309E-03     121.383E-03
            1499            1910     94.9281E-03     105.018E-03
            1515            1910     94.9281E-03     105.018E-03
            1516            1910     94.9281E-03     105.018E-03
            1500            1910     94.9281E-03     105.018E-03
            1500            1911     78.5138E-03     88.5543E-03
            1516            1911     78.5138E-03     88.5543E-03
            1517            1911     78.5138E-03     88.5543E-03
            1501            1911     78.5138E-03     88.5543E-03
            1517            1912     62.1661E-03     71.9341E-03
            1518            1912     62.1661E-03     71.9341E-03
            1502            1912     62.1661E-03     71.9341E-03
            1501            1912     62.1661E-03     71.9341E-03
            1502            1913     45.9070E-03     55.2101E-03
            1518            1913     45.9070E-03     55.2101E-03
            1503            1913     45.9070E-03     55.2101E-03
            1519            1913     45.9070E-03     55.2101E-03
            1519            1914     30.1525E-03     38.2344E-03
            1520            1914     30.1525E-03     38.2344E-03
            1504            1914     30.1525E-03     38.2344E-03
            1503            1914     30.1525E-03     38.2344E-03
            1521            1915     14.5999E-03     22.2165E-03
            1505            1915     14.5999E-03     22.2165E-03
            1520            1915     14.5999E-03     22.2165E-03
            1504            1915     14.5999E-03     22.2165E-03
            1507            1916     275.120E-03     279.933E-03
            1523            1916     275.120E-03     279.933E-03
            1506            1916     275.120E-03     279.933E-03
            1522            1916     275.120E-03     279.933E-03
            1508            1917     253.061E-03     254.365E-03
            1524            1917     253.061E-03     254.365E-03
            1507            1917     253.061E-03     254.365E-03
            1523            1917     253.061E-03     254.365E-03
            1508            1918     235.891E-03     237.893E-03
            1524            1918     235.891E-03     237.893E-03
            1525            1918     235.891E-03     237.893E-03
            1509            1918     235.891E-03     237.893E-03
            1526            1919     218.488E-03     221.809E-03
            1525            1919     218.488E-03     221.809E-03
            1510            1919     218.488E-03     221.809E-03
            1509            1919     218.488E-03     221.809E-03
            1526            1920     201.593E-03     205.651E-03
            1527            1920     201.593E-03     205.651E-03
            1511            1920     201.593E-03     205.651E-03
            1510            1920     201.593E-03     205.651E-03
            1512            1921     184.345E-03     189.005E-03
            1528            1921     184.345E-03     189.005E-03
            1527            1921     184.345E-03     189.005E-03
            1511            1921     184.345E-03     189.005E-03
            1512            1922     167.093E-03     171.967E-03
            1528            1922     167.093E-03     171.967E-03
            1513            1922     167.093E-03     171.967E-03
            1529            1922     167.093E-03     171.967E-03
            1530            1923     149.633E-03     154.709E-03
            1514            1923     149.633E-03     154.709E-03
            1529            1923     149.633E-03     154.709E-03
            1513            1923     149.633E-03     154.709E-03
            1530            1924     132.113E-03     137.231E-03
            1531            1924     132.113E-03     137.231E-03
            1515            1924     132.113E-03     137.231E-03
            1514            1924     132.113E-03     137.231E-03
            1531            1925     114.540E-03     119.752E-03
            1516            1925     114.540E-03     119.752E-03
            1532            1925     114.540E-03     119.752E-03
            1515            1925     114.540E-03     119.752E-03
            1533            1926     97.1021E-03     102.299E-03
            1516            1926     97.1021E-03     102.299E-03
            1517            1926     97.1021E-03     102.299E-03
            1532            1926     97.1021E-03     102.299E-03
            1533            1927     79.9955E-03     85.0974E-03
            1517            1927     79.9955E-03     85.0974E-03
            1534            1927     79.9955E-03     85.0974E-03
            1518            1927     79.9955E-03     85.0974E-03
            1518            1928     63.6093E-03     68.2677E-03
            1519            1928     63.6093E-03     68.2677E-03
            1534            1928     63.6093E-03     68.2677E-03
            1535            1928     63.6093E-03     68.2677E-03
            1535            1929     48.5107E-03     52.7144E-03
            1519            1929     48.5107E-03     52.7144E-03
            1520            1929     48.5107E-03     52.7144E-03
            1536            1929     48.5107E-03     52.7144E-03
            1536            1930     34.6875E-03     40.4500E-03
            1521            1930     34.6875E-03     40.4500E-03
            1520            1930     34.6875E-03     40.4500E-03
            1537            1930     34.6875E-03     40.4500E-03
            1539            1931     291.205E-03     289.603E-03
            1523            1931     291.205E-03     289.603E-03
            1538            1931     291.205E-03     289.603E-03
            1522            1931     291.205E-03     289.603E-03
            1524            1932     281.819E-03     280.738E-03
            1540            1932     281.819E-03     280.738E-03
            1523            1932     281.819E-03     280.738E-03
            1539            1932     281.819E-03     280.738E-03
            1524            1933     267.300E-03     266.569E-03
            1540            1933     267.300E-03     266.569E-03
            1525            1933     267.300E-03     266.569E-03
            1541            1933     267.300E-03     266.569E-03
            1525            1934     250.190E-03     249.704E-03
            1541            1934     250.190E-03     249.704E-03
            1542            1934     250.190E-03     249.704E-03
            1526            1934     250.190E-03     249.704E-03
            1527            1935     231.356E-03     231.225E-03
            1526            1935     231.356E-03     231.225E-03
            1543            1935     231.356E-03     231.225E-03
            1542            1935     231.356E-03     231.225E-03
            1528            1936     211.934E-03     212.103E-03
            1543            1936     211.934E-03     212.103E-03
            1544            1936     211.934E-03     212.103E-03
            1527            1936     211.934E-03     212.103E-03
            1545            1937     192.344E-03     192.575E-03
            1528            1937     192.344E-03     192.575E-03
            1544            1937     192.344E-03     192.575E-03
            1529            1937     192.344E-03     192.575E-03
            1529            1938     172.607E-03     172.931E-03
            1545            1938     172.607E-03     172.931E-03
            1546            1938     172.607E-03     172.931E-03
            1530            1938     172.607E-03     172.931E-03
            1531            1939     152.919E-03     153.243E-03
            1530            1939     152.919E-03     153.243E-03
            1547            1939     152.919E-03     153.243E-03
            1546            1939     152.919E-03     153.243E-03
            1532            1940     133.323E-03     133.681E-03
            1547            1940     133.323E-03     133.681E-03
            1548            1940     133.323E-03     133.681E-03
            1531            1940     133.323E-03     133.681E-03
            1548            1941     114.004E-03     114.362E-03
            1532            1941     114.004E-03     114.362E-03
            1549            1941     114.004E-03     114.362E-03
            1533            1941     114.004E-03     114.362E-03
            1533            1942     95.2254E-03     95.6319E-03
            1549            1942     95.2254E-03     95.6319E-03
            1550            1942     95.2254E-03     95.6319E-03
            1534            1942     95.2254E-03     95.6319E-03
            1535            1943     77.3598E-03     77.9224E-03
            1551            1943     77.3598E-03     77.9224E-03
            1550            1943     77.3598E-03     77.9224E-03
            1534            1943     77.3598E-03     77.9224E-03
            1551            1944     61.0811E-03     62.8553E-03
            1552            1944     61.0811E-03     62.8553E-03
            1535            1944     61.0811E-03     62.8553E-03
            1536            1944     61.0811E-03     62.8553E-03
            1537            1945     48.0675E-03     54.2185E-03
            1553            1945     48.0675E-03     54.2185E-03
            1552            1945     48.0675E-03     54.2185E-03
            1536            1945     48.0675E-03     54.2185E-03
            1555            1946     310.025E-03     314.313E-03
            1538            1946     310.025E-03     314.313E-03
            1554            1946     310.025E-03     314.313E-03
            1539            1946     310.025E-03     314.313E-03
            1555            1947     294.520E-03     300.583E-03
            1540            1947     294.520E-03     300.583E-03
            1556            1947     294.520E-03     300.583E-03
            1539            1947     294.520E-03     300.583E-03
            1541            1948     276.336E-03     280.901E-03
            1557            1948     276.336E-03     280.901E-03
            1540            1948     276.336E-03     280.901E-03
            1556            1948     276.336E-03     280.901E-03
            1541            1949     255.572E-03     259.238E-03
            1557            1949     255.572E-03     259.238E-03
            1558            1949     255.572E-03     259.238E-03
            1542            1949     255.572E-03     259.238E-03
            1542            1950     234.120E-03     237.470E-03
            1543            1950     234.120E-03     237.470E-03
            1559            1950     234.120E-03     237.470E-03
            1558            1950     234.120E-03     237.470E-03
            1543            1951     212.959E-03     216.071E-03
            1559            1951     212.959E-03     216.071E-03
            1560            1951     212.959E-03     216.071E-03
            1544            1951     212.959E-03     216.071E-03
            1545            1952     191.836E-03     194.901E-03
            1561            1952     191.836E-03     194.901E-03
            1544            1952     191.836E-03     194.901E-03
            1560            1952     191.836E-03     194.901E-03
            1561            1953     170.940E-03     173.945E-03
            1545            1953     170.940E-03     173.945E-03
            1562            1953     170.940E-03     173.945E-03
            1546            1953     170.940E-03     173.945E-03
            1547            1954     150.175E-03     153.157E-03
            1563            1954     150.175E-03     153.157E-03
            1546            1954     150.175E-03     153.157E-03
            1562            1954     150.175E-03     153.157E-03
            1547            1955     129.625E-03     132.523E-03
            1564            1955     129.625E-03     132.523E-03
            1548            1955     129.625E-03     132.523E-03
            1563            1955     129.625E-03     132.523E-03
            1565            1956     109.277E-03     112.125E-03
            1548            1956     109.277E-03     112.125E-03
            1549            1956     109.277E-03     112.125E-03
            1564            1956     109.277E-03     112.125E-03
            1565            1957     89.2755E-03     92.1523E-03
            1549            1957     89.2755E-03     92.1523E-03
            1566            1957     89.2755E-03     92.1523E-03
            1550            1957     89.2755E-03     92.1523E-03
            1566            1958     69.6899E-03     73.1604E-03
            1551            1958     69.6899E-03     73.1604E-03
            1550            1958     69.6899E-03     73.1604E-03
            1567            1958     69.6899E-03     73.1604E-03
            1552            1959     51.2177E-03     56.6683E-03
            1568            1959     51.2177E-03     56.6683E-03
            1551            1959     51.2177E-03     56.6683E-03
            1567            1959     51.2177E-03     56.6683E-03
            1569            1960     38.1193E-03     43.0347E-03
            1552            1960     38.1193E-03     43.0347E-03
            1553            1960     38.1193E-03     43.0347E-03
            1568            1960     38.1193E-03     43.0347E-03
            1554            1961     323.763E-03     332.500E-03
            1555            1961     323.763E-03     332.500E-03
            1571            1961     323.763E-03     332.500E-03
            1570            1961     323.763E-03     332.500E-03
            1556            1962     303.555E-03     311.737E-03
            1572            1962     303.555E-03     311.737E-03
            1555            1962     303.555E-03     311.737E-03
            1571            1962     303.555E-03     311.737E-03
            1557            1963     279.851E-03     287.710E-03
            1572            1963     279.851E-03     287.710E-03
            1573            1963     279.851E-03     287.710E-03
            1556            1963     279.851E-03     287.710E-03
            1574            1964     256.027E-03     263.331E-03
            1557            1964     256.027E-03     263.331E-03
            1573            1964     256.027E-03     263.331E-03
            1558            1964     256.027E-03     263.331E-03
            1574            1965     233.869E-03     240.329E-03
            1558            1965     233.869E-03     240.329E-03
            1559            1965     233.869E-03     240.329E-03
            1575            1965     233.869E-03     240.329E-03
            1575            1966     211.888E-03     217.954E-03
            1559            1966     211.888E-03     217.954E-03
            1560            1966     211.888E-03     217.954E-03
            1576            1966     211.888E-03     217.954E-03
            1561            1967     190.255E-03     196.142E-03
            1577            1967     190.255E-03     196.142E-03
            1576            1967     190.255E-03     196.142E-03
            1560            1967     190.255E-03     196.142E-03
            1561            1968     168.792E-03     174.602E-03
            1562            1968     168.792E-03     174.602E-03
            1577            1968     168.792E-03     174.602E-03
            1578            1968     168.792E-03     174.602E-03
            1562            1969     147.516E-03     153.257E-03
            1563            1969     147.516E-03     153.257E-03
            1578            1969     147.516E-03     153.257E-03
            1579            1969     147.516E-03     153.257E-03
            1563            1970     126.372E-03     132.049E-03
            1580            1970     126.372E-03     132.049E-03
            1564            1970     126.372E-03     132.049E-03
            1579            1970     126.372E-03     132.049E-03
            1580            1971     105.401E-03     111.011E-03
            1564            1971     105.401E-03     111.011E-03
            1565            1971     105.401E-03     111.011E-03
            1581            1971     105.401E-03     111.011E-03
            1582            1972     84.5513E-03     90.1910E-03
            1565            1972     84.5513E-03     90.1910E-03
            1566            1972     84.5513E-03     90.1910E-03
            1581            1972     84.5513E-03     90.1910E-03
            1582            1973     63.8023E-03     70.1285E-03
            1567            1973     63.8023E-03     70.1285E-03
            1566            1973     63.8023E-03     70.1285E-03
            1583            1973     63.8023E-03     70.1285E-03
            1568            1974     43.9386E-03     51.2916E-03
            1567            1974     43.9386E-03     51.2916E-03
            1584            1974     43.9386E-03     51.2916E-03
            1583            1974     43.9386E-03     51.2916E-03
            1584            1975     27.9945E-03     32.6584E-03
            1568            1975     27.9945E-03     32.6584E-03
            1569            1975     27.9945E-03     32.6584E-03
            1585            1975     27.9945E-03     32.6584E-03
            1586            1976     335.688E-03     340.259E-03
            1587            1976     335.688E-03     340.259E-03
            1570            1976     335.688E-03     340.259E-03
            1571            1976     335.688E-03     340.259E-03
            1571            1977     304.826E-03     313.866E-03
            1588            1977     304.826E-03     313.866E-03
            1587            1977     304.826E-03     313.866E-03
            1572            1977     304.826E-03     313.866E-03
            1588            1978     275.715E-03     285.839E-03
            1589            1978     275.715E-03     285.839E-03
            1572            1978     275.715E-03     285.839E-03
            1573            1978     275.715E-03     285.839E-03
            1590            1979     252.361E-03     261.880E-03
            1589            1979     252.361E-03     261.880E-03
            1573            1979     252.361E-03     261.880E-03
            1574            1979     252.361E-03     261.880E-03
            1591            1980     230.244E-03     239.249E-03
            1575            1980     230.244E-03     239.249E-03
            1590            1980     230.244E-03     239.249E-03
            1574            1980     230.244E-03     239.249E-03
            1576            1981     208.645E-03     217.432E-03
            1575            1981     208.645E-03     217.432E-03
            1592            1981     208.645E-03     217.432E-03
            1591            1981     208.645E-03     217.432E-03
            1592            1982     187.249E-03     195.930E-03
            1577            1982     187.249E-03     195.930E-03
            1576            1982     187.249E-03     195.930E-03
            1593            1982     187.249E-03     195.930E-03
            1578            1983     165.919E-03     174.573E-03
            1593            1983     165.919E-03     174.573E-03
            1594            1983     165.919E-03     174.573E-03
            1577            1983     165.919E-03     174.573E-03
            1595            1984     144.657E-03     153.287E-03
            1594            1984     144.657E-03     153.287E-03
            1579            1984     144.657E-03     153.287E-03
            1578            1984     144.657E-03     153.287E-03
            1579            1985     123.448E-03     132.035E-03
            1595            1985     123.448E-03     132.035E-03
            1580            1985     123.448E-03     132.035E-03
            1596            1985     123.448E-03     132.035E-03
            1581            1986     102.281E-03     110.815E-03
            1597            1986     102.281E-03     110.815E-03
            1596            1986     102.281E-03     110.815E-03
            1580            1986     102.281E-03     110.815E-03
            1597            1987     81.1479E-03     89.7030E-03
            1582            1987     81.1479E-03     89.7030E-03
            1598            1987     81.1479E-03     89.7030E-03
            1581            1987     81.1479E-03     89.7030E-03
            1582            1988     60.1115E-03     68.7541E-03
            1599            1988     60.1115E-03     68.7541E-03
            1583            1988     60.1115E-03     68.7541E-03
            1598            1988     60.1115E-03     68.7541E-03
            1600            1989     39.3878E-03     47.7717E-03
            1584            1989     39.3878E-03     47.7717E-03
            1599            1989     39.3878E-03     47.7717E-03
            1583            1989     39.3878E-03     47.7717E-03
            1585            1990     19.4433E-03     28.7534E-03
            1601            1990     19.4433E-03     28.7534E-03
            1584            1990     19.4433E-03     28.7534E-03
            1600            1990     19.4433E-03     28.7534E-03
            1602            1991     334.839E-03     342.110E-03
            1603            1991     334.839E-03     342.110E-03
            1586            1991     334.839E-03     342.110E-03
            1587            1991     334.839E-03     342.110E-03
            1588            1992     294.787E-03     304.768E-03
            1604            1992     294.787E-03     304.768E-03
            1603            1992     294.787E-03     304.768E-03
            1587            1992     294.787E-03     304.768E-03
            1588            1993     267.452E-03     277.919E-03
            1604            1993     267.452E-03     277.919E-03
            1605            1993     267.452E-03     277.919E-03
            1589            1993     267.452E-03     277.919E-03
            1605            1994     245.376E-03     256.167E-03
            1590            1994     245.376E-03     256.167E-03
            1589            1994     245.376E-03     256.167E-03
            1606            1994     245.376E-03     256.167E-03
            1606            1995     224.242E-03     235.428E-03
            1590            1995     224.242E-03     235.428E-03
            1591            1995     224.242E-03     235.428E-03
            1607            1995     224.242E-03     235.428E-03
            1592            1996     203.737E-03     215.116E-03
            1608            1996     203.737E-03     215.116E-03
            1591            1996     203.737E-03     215.116E-03
            1607            1996     203.737E-03     215.116E-03
            1593            1997     183.168E-03     194.645E-03
            1609            1997     183.168E-03     194.645E-03
            1592            1997     183.168E-03     194.645E-03
            1608            1997     183.168E-03     194.645E-03
            1594            1998     162.547E-03     174.082E-03
            1593            1998     162.547E-03     174.082E-03
            1609            1998     162.547E-03     174.082E-03
            1610            1998     162.547E-03     174.082E-03
            1595            1999     141.794E-03     153.349E-03
            1610            1999     141.794E-03     153.349E-03
            1611            1999     141.794E-03     153.349E-03
            1594            1999     141.794E-03     153.349E-03
            1612            2000     120.970E-03     132.548E-03
            1595            2000     120.970E-03     132.548E-03
            1596            2000     120.970E-03     132.548E-03
            1611            2000     120.970E-03     132.548E-03
            1596            2001     100.088E-03     111.643E-03
            1613            2001     100.088E-03     111.643E-03
            1612            2001     100.088E-03     111.643E-03
            1597            2001     100.088E-03     111.643E-03
            1597            2002     79.2524E-03     90.7260E-03
            1598            2002     79.2524E-03     90.7260E-03
            1613            2002     79.2524E-03     90.7260E-03
            1614            2002     79.2524E-03     90.7260E-03
            1598            2003     58.6489E-03     69.5513E-03
            1615            2003     58.6489E-03     69.5513E-03
            1599            2003     58.6489E-03     69.5513E-03
            1614            2003     58.6489E-03     69.5513E-03
            1600            2004     38.4542E-03     48.3054E-03
            1616            2004     38.4542E-03     48.3054E-03
            1615            2004     38.4542E-03     48.3054E-03
            1599            2004     38.4542E-03     48.3054E-03
            1601            2005     18.7512E-03     28.4231E-03
            1617            2005     18.7512E-03     28.4231E-03
            1600            2005     18.7512E-03     28.4231E-03
            1616            2005     18.7512E-03     28.4231E-03
            1689            2042     340.256E-03     342.599E-03
            1674            2042     340.256E-03     342.599E-03
            1690            2042     340.256E-03     342.599E-03
            1673            2042     340.256E-03     342.599E-03
            1690            2043     323.813E-03     325.567E-03
            1691            2043     323.813E-03     325.567E-03
            1674            2043     323.813E-03     325.567E-03
            1675            2043     323.813E-03     325.567E-03
            1692            2044     304.066E-03     306.030E-03
            1675            2044     304.066E-03     306.030E-03
            1676            2044     304.066E-03     306.030E-03
            1691            2044     304.066E-03     306.030E-03
            1676            2045     282.019E-03     284.215E-03
            1677            2045     282.019E-03     284.215E-03
            1693            2045     282.019E-03     284.215E-03
            1692            2045     282.019E-03     284.215E-03
            1677            2046     259.335E-03     261.638E-03
            1678            2046     259.335E-03     261.638E-03
            1694            2046     259.335E-03     261.638E-03
            1693            2046     259.335E-03     261.638E-03
            1694            2047     236.458E-03     238.889E-03
            1695            2047     236.458E-03     238.889E-03
            1678            2047     236.458E-03     238.889E-03
            1679            2047     236.458E-03     238.889E-03
            1680            2048     213.442E-03     215.775E-03
            1696            2048     213.442E-03     215.775E-03
            1695            2048     213.442E-03     215.775E-03
            1679            2048     213.442E-03     215.775E-03
            1681            2049     190.281E-03     192.688E-03
            1696            2049     190.281E-03     192.688E-03
            1697            2049     190.281E-03     192.688E-03
            1680            2049     190.281E-03     192.688E-03
            1697            2050     167.130E-03     169.477E-03
            1682            2050     167.130E-03     169.477E-03
            1698            2050     167.130E-03     169.477E-03
            1681            2050     167.130E-03     169.477E-03
            1699            2051     143.968E-03     146.374E-03
            1682            2051     143.968E-03     146.374E-03
            1683            2051     143.968E-03     146.374E-03
            1698            2051     143.968E-03     146.374E-03
            1684            2052     120.937E-03     123.359E-03
            1700            2052     120.937E-03     123.359E-03
            1683            2052     120.937E-03     123.359E-03
            1699            2052     120.937E-03     123.359E-03
            1700            2053     98.0996E-03     100.621E-03
            1701            2053     98.0996E-03     100.621E-03
            1685            2053     98.0996E-03     100.621E-03
            1684            2053     98.0996E-03     100.621E-03
            1702            2054     75.7551E-03     78.3418E-03
            1701            2054     75.7551E-03     78.3418E-03
            1686            2054     75.7551E-03     78.3418E-03
            1685            2054     75.7551E-03     78.3418E-03
            1703            2055     54.3844E-03     57.2424E-03
            1687            2055     54.3844E-03     57.2424E-03
            1686            2055     54.3844E-03     57.2424E-03
            1702            2055     54.3844E-03     57.2424E-03
            1704            2056     34.1459E-03     38.6593E-03
            1687            2056     34.1459E-03     38.6593E-03
            1703            2056     34.1459E-03     38.6593E-03
            1688            2056     34.1459E-03     38.6593E-03
            1706            2057     363.316E-03     365.666E-03
            1705            2057     363.316E-03     365.666E-03
            1689            2057     363.316E-03     365.666E-03
            1690            2057     363.316E-03     365.666E-03
            1707            2058     348.330E-03     349.503E-03
            1706            2058     348.330E-03     349.503E-03
            1691            2058     348.330E-03     349.503E-03
            1690            2058     348.330E-03     349.503E-03
            1692            2059     326.016E-03     327.217E-03
            1691            2059     326.016E-03     327.217E-03
            1708            2059     326.016E-03     327.217E-03
            1707            2059     326.016E-03     327.217E-03
            1709            2060     301.691E-03     303.105E-03
            1708            2060     301.691E-03     303.105E-03
            1693            2060     301.691E-03     303.105E-03
            1692            2060     301.691E-03     303.105E-03
            1694            2061     277.435E-03     278.722E-03
            1693            2061     277.435E-03     278.722E-03
            1710            2061     277.435E-03     278.722E-03
            1709            2061     277.435E-03     278.722E-03
            1694            2062     252.871E-03     254.269E-03
            1711            2062     252.871E-03     254.269E-03
            1710            2062     252.871E-03     254.269E-03
            1695            2062     252.871E-03     254.269E-03
            1711            2063     228.378E-03     229.711E-03
            1696            2063     228.378E-03     229.711E-03
            1712            2063     228.378E-03     229.711E-03
            1695            2063     228.378E-03     229.711E-03
            1696            2064     203.758E-03     205.141E-03
            1697            2064     203.758E-03     205.141E-03
            1712            2064     203.758E-03     205.141E-03
            1713            2064     203.758E-03     205.141E-03
            1713            2065     179.209E-03     180.555E-03
            1697            2065     179.209E-03     180.555E-03
            1698            2065     179.209E-03     180.555E-03
            1714            2065     179.209E-03     180.555E-03
            1698            2066     154.705E-03     156.071E-03
            1714            2066     154.705E-03     156.071E-03
            1715            2066     154.705E-03     156.071E-03
            1699            2066     154.705E-03     156.071E-03
            1699            2067     130.424E-03     131.742E-03
            1715            2067     130.424E-03     131.742E-03
            1700            2067     130.424E-03     131.742E-03
            1716            2067     130.424E-03     131.742E-03
            1716            2068     106.466E-03     107.800E-03
            1717            2068     106.466E-03     107.800E-03
            1700            2068     106.466E-03     107.800E-03
            1701            2068     106.466E-03     107.800E-03
            1701            2069     83.1614E-03     84.4704E-03
            1702            2069     83.1614E-03     84.4704E-03
            1717            2069     83.1614E-03     84.4704E-03
            1718            2069     83.1614E-03     84.4704E-03
            1718            2070     61.1803E-03     63.2992E-03
            1703            2070     61.1803E-03     63.2992E-03
            1702            2070     61.1803E-03     63.2992E-03
            1719            2070     61.1803E-03     63.2992E-03
            1720            2071     42.7261E-03     48.2732E-03
            1704            2071     42.7261E-03     48.2732E-03
            1719            2071     42.7261E-03     48.2732E-03
            1703            2071     42.7261E-03     48.2732E-03
            1705            2072     384.396E-03     388.838E-03
            1706            2072     384.396E-03     388.838E-03
            1721            2072     384.396E-03     388.838E-03
            1722            2072     384.396E-03     388.838E-03
            1722            2073     356.604E-03     364.733E-03
            1706            2073     356.604E-03     364.733E-03
            1707            2073     356.604E-03     364.733E-03
            1723            2073     356.604E-03     364.733E-03
            1707            2074     327.238E-03     335.157E-03
            1723            2074     327.238E-03     335.157E-03
            1708            2074     327.238E-03     335.157E-03
            1724            2074     327.238E-03     335.157E-03
            1709            2075     301.208E-03     308.459E-03
            1725            2075     301.208E-03     308.459E-03
            1724            2075     301.208E-03     308.459E-03
            1708            2075     301.208E-03     308.459E-03
            1709            2076     275.472E-03     282.497E-03
            1710            2076     275.472E-03     282.497E-03
            1726            2076     275.472E-03     282.497E-03
            1725            2076     275.472E-03     282.497E-03
            1710            2077     249.978E-03     256.926E-03
            1726            2077     249.978E-03     256.926E-03
            1711            2077     249.978E-03     256.926E-03
            1727            2077     249.978E-03     256.926E-03
            1727            2078     224.627E-03     231.637E-03
            1728            2078     224.627E-03     231.637E-03
            1711            2078     224.627E-03     231.637E-03
            1712            2078     224.627E-03     231.637E-03
            1713            2079     199.421E-03     206.400E-03
            1728            2079     199.421E-03     206.400E-03
            1729            2079     199.421E-03     206.400E-03
            1712            2079     199.421E-03     206.400E-03
            1729            2080     174.261E-03     181.275E-03
            1714            2080     174.261E-03     181.275E-03
            1730            2080     174.261E-03     181.275E-03
            1713            2080     174.261E-03     181.275E-03
            1714            2081     149.213E-03     156.174E-03
            1715            2081     149.213E-03     156.174E-03
            1731            2081     149.213E-03     156.174E-03
            1730            2081     149.213E-03     156.174E-03
            1715            2082     124.269E-03     131.141E-03
            1716            2082     124.269E-03     131.141E-03
            1731            2082     124.269E-03     131.141E-03
            1732            2082     124.269E-03     131.141E-03
            1717            2083     99.5685E-03     106.190E-03
            1716            2083     99.5685E-03     106.190E-03
            1733            2083     99.5685E-03     106.190E-03
            1732            2083     99.5685E-03     106.190E-03
            1717            2084     74.9351E-03     81.4790E-03
            1734            2084     74.9351E-03     81.4790E-03
            1718            2084     74.9351E-03     81.4790E-03
            1733            2084     74.9351E-03     81.4790E-03
            1718            2085     50.7345E-03     58.2997E-03
            1735            2085     50.7345E-03     58.2997E-03
            1719            2085     50.7345E-03     58.2997E-03
            1734            2085     50.7345E-03     58.2997E-03
            1719            2086     30.0673E-03     38.5774E-03
            1736            2086     30.0673E-03     38.5774E-03
            1720            2086     30.0673E-03     38.5774E-03
            1735            2086     30.0673E-03     38.5774E-03
            1721            2087     385.904E-03     396.362E-03
            1737            2087     385.904E-03     396.362E-03
            1738            2087     385.904E-03     396.362E-03
            1722            2087     385.904E-03     396.362E-03
            1738            2088     348.113E-03     360.725E-03
            1739            2088     348.113E-03     360.725E-03
            1722            2088     348.113E-03     360.725E-03
            1723            2088     348.113E-03     360.725E-03
            1723            2089     320.066E-03     332.832E-03
            1740            2089     320.066E-03     332.832E-03
            1724            2089     320.066E-03     332.832E-03
            1739            2089     320.066E-03     332.832E-03
            1741            2090     295.205E-03     307.824E-03
            1740            2090     295.205E-03     307.824E-03
            1724            2090     295.205E-03     307.824E-03
            1725            2090     295.205E-03     307.824E-03
            1725            2091     270.326E-03     282.956E-03
            1741            2091     270.326E-03     282.956E-03
            1742            2091     270.326E-03     282.956E-03
            1726            2091     270.326E-03     282.956E-03
            1742            2092     245.447E-03     258.154E-03
            1743            2092     245.447E-03     258.154E-03
            1726            2092     245.447E-03     258.154E-03
            1727            2092     245.447E-03     258.154E-03
            1743            2093     220.468E-03     233.106E-03
            1728            2093     220.468E-03     233.106E-03
            1727            2093     220.468E-03     233.106E-03
            1744            2093     220.468E-03     233.106E-03
            1728            2094     195.388E-03     208.086E-03
            1745            2094     195.388E-03     208.086E-03
            1744            2094     195.388E-03     208.086E-03
            1729            2094     195.388E-03     208.086E-03
            1729            2095     170.300E-03     182.950E-03
            1745            2095     170.300E-03     182.950E-03
            1730            2095     170.300E-03     182.950E-03
            1746            2095     170.300E-03     182.950E-03
            1731            2096     145.162E-03     157.844E-03
            1747            2096     145.162E-03     157.844E-03
            1746            2096     145.162E-03     157.844E-03
            1730            2096     145.162E-03     157.844E-03
            1731            2097     120.038E-03     132.703E-03
            1732            2097     120.038E-03     132.703E-03
            1748            2097     120.038E-03     132.703E-03
            1747            2097     120.038E-03     132.703E-03
            1733            2098     94.9565E-03     107.570E-03
            1748            2098     94.9565E-03     107.570E-03
            1749            2098     94.9565E-03     107.570E-03
            1732            2098     94.9565E-03     107.570E-03
            1734            2099     69.9488E-03     82.4951E-03
            1750            2099     69.9488E-03     82.4951E-03
            1749            2099     69.9488E-03     82.4951E-03
            1733            2099     69.9488E-03     82.4951E-03
            1750            2100     45.2936E-03     57.6282E-03
            1751            2100     45.2936E-03     57.6282E-03
            1735            2100     45.2936E-03     57.6282E-03
            1734            2100     45.2936E-03     57.6282E-03
            1751            2101     22.4941E-03     32.1435E-03
            1752            2101     22.4941E-03     32.1435E-03
            1735            2101     22.4941E-03     32.1435E-03
            1736            2101     22.4941E-03     32.1435E-03
            2369            2543     236.442E-03     251.985E-03
            2370            2543     236.442E-03     251.985E-03
            2386            2543     236.442E-03     251.985E-03
            2385            2543     236.442E-03     251.985E-03
            2387            2544     208.336E-03     225.888E-03
            2370            2544     208.336E-03     225.888E-03
            2386            2544     208.336E-03     225.888E-03
            2371            2544     208.336E-03     225.888E-03
            2371            2545     192.356E-03     210.100E-03
            2372            2545     192.356E-03     210.100E-03
            2388            2545     192.356E-03     210.100E-03
            2387            2545     192.356E-03     210.100E-03
            2372            2546     177.797E-03     195.304E-03
            2389            2546     177.797E-03     195.304E-03
            2373            2546     177.797E-03     195.304E-03
            2388            2546     177.797E-03     195.304E-03
            2389            2547     162.725E-03     180.161E-03
            2374            2547     162.725E-03     180.161E-03
            2373            2547     162.725E-03     180.161E-03
            2390            2547     162.725E-03     180.161E-03
            2375            2548     147.881E-03     165.375E-03
            2391            2548     147.881E-03     165.375E-03
            2374            2548     147.881E-03     165.375E-03
            2390            2548     147.881E-03     165.375E-03
            2392            2549     133.192E-03     150.489E-03
            2391            2549     133.192E-03     150.489E-03
            2375            2549     133.192E-03     150.489E-03
            2376            2549     133.192E-03     150.489E-03
            2376            2550     118.595E-03     135.851E-03
            2377            2550     118.595E-03     135.851E-03
            2392            2550     118.595E-03     135.851E-03
            2393            2550     118.595E-03     135.851E-03
            2378            2551     104.256E-03     121.248E-03
            2393            2551     104.256E-03     121.248E-03
            2394            2551     104.256E-03     121.248E-03
            2377            2551     104.256E-03     121.248E-03
            2378            2552     90.1500E-03     106.916E-03
            2394            2552     90.1500E-03     106.916E-03
            2395            2552     90.1500E-03     106.916E-03
            2379            2552     90.1500E-03     106.916E-03
            2396            2553     76.5431E-03     92.8097E-03
            2379            2553     76.5431E-03     92.8097E-03
            2380            2553     76.5431E-03     92.8097E-03
            2395            2553     76.5431E-03     92.8097E-03
            2380            2554     63.6148E-03     79.1927E-03
            2381            2554     63.6148E-03     79.1927E-03
            2396            2554     63.6148E-03     79.1927E-03
            2397            2554     63.6148E-03     79.1927E-03
            2398            2555     52.0634E-03     66.2061E-03
            2397            2555     52.0634E-03     66.2061E-03
            2382            2555     52.0634E-03     66.2061E-03
            2381            2555     52.0634E-03     66.2061E-03
            2383            2556     43.6943E-03     55.1164E-03
            2398            2556     43.6943E-03     55.1164E-03
            2399            2556     43.6943E-03     55.1164E-03
            2382            2556     43.6943E-03     55.1164E-03
            2399            2557     40.2874E-03     45.9014E-03
            2400            2557     40.2874E-03     45.9014E-03
            2383            2557     40.2874E-03     45.9014E-03
            2384            2557     40.2874E-03     45.9014E-03
            2385            2558     223.079E-03     211.673E-03
            2402            2558     223.079E-03     211.673E-03
            2401            2558     223.079E-03     211.673E-03
            2386            2558     223.079E-03     211.673E-03
            2403            2559     222.598E-03     213.490E-03
            2402            2559     222.598E-03     213.490E-03
            2386            2559     222.598E-03     213.490E-03
            2387            2559     222.598E-03     213.490E-03
            2388            2560     207.018E-03     198.014E-03
            2387            2560     207.018E-03     198.014E-03
            2403            2560     207.018E-03     198.014E-03
            2404            2560     207.018E-03     198.014E-03
            2388            2561     192.394E-03     183.184E-03
            2404            2561     192.394E-03     183.184E-03
            2389            2561     192.394E-03     183.184E-03
            2405            2561     192.394E-03     183.184E-03
            2406            2562     177.808E-03     168.880E-03
            2405            2562     177.808E-03     168.880E-03
            2389            2562     177.808E-03     168.880E-03
            2390            2562     177.808E-03     168.880E-03
            2390            2563     163.377E-03     154.432E-03
            2407            2563     163.377E-03     154.432E-03
            2406            2563     163.377E-03     154.432E-03
            2391            2563     163.377E-03     154.432E-03
            2408            2564     148.846E-03     140.117E-03
            2391            2564     148.846E-03     140.117E-03
            2407            2564     148.846E-03     140.117E-03
            2392            2564     148.846E-03     140.117E-03
            2408            2565     134.531E-03     125.886E-03
            2409            2565     134.531E-03     125.886E-03
            2392            2565     134.531E-03     125.886E-03
            2393            2565     134.531E-03     125.886E-03
            2410            2566     120.336E-03     111.960E-03
            2409            2566     120.336E-03     111.960E-03
            2393            2566     120.336E-03     111.960E-03
            2394            2566     120.336E-03     111.960E-03
            2411            2567     106.472E-03     98.3551E-03
            2410            2567     106.472E-03     98.3551E-03
            2395            2567     106.472E-03     98.3551E-03
            2394            2567     106.472E-03     98.3551E-03
            2411            2568     92.9855E-03     85.3440E-03
            2412            2568     92.9855E-03     85.3440E-03
            2396            2568     92.9855E-03     85.3440E-03
            2395            2568     92.9855E-03     85.3440E-03
            2413            2569     80.1437E-03     73.1694E-03
            2396            2569     80.1437E-03     73.1694E-03
            2412            2569     80.1437E-03     73.1694E-03
            2397            2569     80.1437E-03     73.1694E-03
            2413            2570     68.4012E-03     62.2080E-03
            2414            2570     68.4012E-03     62.2080E-03
            2397            2570     68.4012E-03     62.2080E-03
            2398            2570     68.4012E-03     62.2080E-03
            2415            2571     58.4161E-03     54.0164E-03
            2414            2571     58.4161E-03     54.0164E-03
            2399            2571     58.4161E-03     54.0164E-03
            2398            2571     58.4161E-03     54.0164E-03
            2415            2572     51.3983E-03     49.8913E-03
            2416            2572     51.3983E-03     49.8913E-03
            2399            2572     51.3983E-03     49.8913E-03
            2400            2572     51.3983E-03     49.8913E-03
            2402            2573     192.948E-03     197.038E-03
            2417            2573     192.948E-03     197.038E-03
            2418            2573     192.948E-03     197.038E-03
            2401            2573     192.948E-03     197.038E-03
            2418            2574     174.191E-03     172.049E-03
            2403            2574     174.191E-03     172.049E-03
            2402            2574     174.191E-03     172.049E-03
            2419            2574     174.191E-03     172.049E-03
            2403            2575     157.955E-03     154.461E-03
            2420            2575     157.955E-03     154.461E-03
            2404            2575     157.955E-03     154.461E-03
            2419            2575     157.955E-03     154.461E-03
            2421            2576     144.003E-03     140.787E-03
            2405            2576     144.003E-03     140.787E-03
            2404            2576     144.003E-03     140.787E-03
            2420            2576     144.003E-03     140.787E-03
            2421            2577     133.033E-03     129.843E-03
            2406            2577     133.033E-03     129.843E-03
            2422            2577     133.033E-03     129.843E-03
            2405            2577     133.033E-03     129.843E-03
            2406            2578     122.520E-03     119.286E-03
            2423            2578     122.520E-03     119.286E-03
            2422            2578     122.520E-03     119.286E-03
            2407            2578     122.520E-03     119.286E-03
            2407            2579     112.269E-03     109.101E-03
            2408            2579     112.269E-03     109.101E-03
            2424            2579     112.269E-03     109.101E-03
            2423            2579     112.269E-03     109.101E-03
            2408            2580     102.173E-03     98.9411E-03
            2424            2580     102.173E-03     98.9411E-03
            2409            2580     102.173E-03     98.9411E-03
            2425            2580     102.173E-03     98.9411E-03
            2409            2581     92.2192E-03     89.0247E-03
            2426            2581     92.2192E-03     89.0247E-03
            2410            2581     92.2192E-03     89.0247E-03
            2425            2581     92.2192E-03     89.0247E-03
            2427            2582     82.6248E-03     79.3654E-03
            2426            2582     82.6248E-03     79.3654E-03
            2411            2582     82.6248E-03     79.3654E-03
            2410            2582     82.6248E-03     79.3654E-03
            2411            2583     73.4196E-03     70.1437E-03
            2412            2583     73.4196E-03     70.1437E-03
            2428            2583     73.4196E-03     70.1437E-03
            2427            2583     73.4196E-03     70.1437E-03
            2412            2584     64.9376E-03     61.6674E-03
            2428            2584     64.9376E-03     61.6674E-03
            2413            2584     64.9376E-03     61.6674E-03
            2429            2584     64.9376E-03     61.6674E-03
            2430            2585     57.3201E-03     54.1677E-03
            2429            2585     57.3201E-03     54.1677E-03
            2414            2585     57.3201E-03     54.1677E-03
            2413            2585     57.3201E-03     54.1677E-03
            2415            2586     50.7697E-03     48.8773E-03
            2414            2586     50.7697E-03     48.8773E-03
            2431            2586     50.7697E-03     48.8773E-03
            2430            2586     50.7697E-03     48.8773E-03
            2416            2587     43.8548E-03     45.5973E-03
            2415            2587     43.8548E-03     45.5973E-03
            2431            2587     43.8548E-03     45.5973E-03
            2432            2587     43.8548E-03     45.5973E-03
            2433            2588     176.907E-03     188.792E-03
            2434            2588     176.907E-03     188.792E-03
            2418            2588     176.907E-03     188.792E-03
            2417            2588     176.907E-03     188.792E-03
            2418            2589     125.994E-03     140.037E-03
            2434            2589     125.994E-03     140.037E-03
            2419            2589     125.994E-03     140.037E-03
            2435            2589     125.994E-03     140.037E-03
            2435            2590     103.210E-03     117.027E-03
            2420            2590     103.210E-03     117.027E-03
            2419            2590     103.210E-03     117.027E-03
            2436            2590     103.210E-03     117.027E-03
            2421            2591     91.7046E-03     105.227E-03
            2436            2591     91.7046E-03     105.227E-03
            2420            2591     91.7046E-03     105.227E-03
            2437            2591     91.7046E-03     105.227E-03
            2438            2592     83.3665E-03     96.7577E-03
            2437            2592     83.3665E-03     96.7577E-03
            2421            2592     83.3665E-03     96.7577E-03
            2422            2592     83.3665E-03     96.7577E-03
            2438            2593     76.7958E-03     89.9178E-03
            2422            2593     76.7958E-03     89.9178E-03
            2423            2593     76.7958E-03     89.9178E-03
            2439            2593     76.7958E-03     89.9178E-03
            2423            2594     70.4817E-03     83.3190E-03
            2424            2594     70.4817E-03     83.3190E-03
            2440            2594     70.4817E-03     83.3190E-03
            2439            2594     70.4817E-03     83.3190E-03
            2424            2595     64.4590E-03     76.9607E-03
            2425            2595     64.4590E-03     76.9607E-03
            2441            2595     64.4590E-03     76.9607E-03
            2440            2595     64.4590E-03     76.9607E-03
            2426            2596     58.6377E-03     70.6449E-03
            2425            2596     58.6377E-03     70.6449E-03
            2441            2596     58.6377E-03     70.6449E-03
            2442            2596     58.6377E-03     70.6449E-03
            2427            2597     53.1759E-03     64.5353E-03
            2426            2597     53.1759E-03     64.5353E-03
            2442            2597     53.1759E-03     64.5353E-03
            2443            2597     53.1759E-03     64.5353E-03
            2428            2598     48.2465E-03     58.6351E-03
            2444            2598     48.2465E-03     58.6351E-03
            2443            2598     48.2465E-03     58.6351E-03
            2427            2598     48.2465E-03     58.6351E-03
            2428            2599     44.0633E-03     53.0739E-03
            2444            2599     44.0633E-03     53.0739E-03
            2429            2599     44.0633E-03     53.0739E-03
            2445            2599     44.0633E-03     53.0739E-03
            2430            2600     40.7159E-03     48.0382E-03
            2445            2600     40.7159E-03     48.0382E-03
            2429            2600     40.7159E-03     48.0382E-03
            2446            2600     40.7159E-03     48.0382E-03
            2430            2601     38.2224E-03     44.0685E-03
            2446            2601     38.2224E-03     44.0685E-03
            2447            2601     38.2224E-03     44.0685E-03
            2431            2601     38.2224E-03     44.0685E-03
            2432            2602     37.0568E-03     41.3425E-03
            2448            2602     37.0568E-03     41.3425E-03
            2447            2602     37.0568E-03     41.3425E-03
            2431            2602     37.0568E-03     41.3425E-03
            2449            2603     161.711E-03     162.669E-03
            2433            2603     161.711E-03     162.669E-03
            2450            2603     161.711E-03     162.669E-03
            2434            2603     161.711E-03     162.669E-03
            2451            2604     127.937E-03     134.121E-03
            2450            2604     127.937E-03     134.121E-03
            2435            2604     127.937E-03     134.121E-03
            2434            2604     127.937E-03     134.121E-03
            2451            2605     106.908E-03     115.861E-03
            2436            2605     106.908E-03     115.861E-03
            2452            2605     106.908E-03     115.861E-03
            2435            2605     106.908E-03     115.861E-03
            2436            2606     96.5712E-03     105.847E-03
            2437            2606     96.5712E-03     105.847E-03
            2453            2606     96.5712E-03     105.847E-03
            2452            2606     96.5712E-03     105.847E-03
            2438            2607     89.1437E-03     97.9588E-03
            2454            2607     89.1437E-03     97.9588E-03
            2437            2607     89.1437E-03     97.9588E-03
            2453            2607     89.1437E-03     97.9588E-03
            2454            2608     82.2300E-03     90.7792E-03
            2438            2608     82.2300E-03     90.7792E-03
            2439            2608     82.2300E-03     90.7792E-03
            2455            2608     82.2300E-03     90.7792E-03
            2455            2609     75.7879E-03     84.0386E-03
            2456            2609     75.7879E-03     84.0386E-03
            2439            2609     75.7879E-03     84.0386E-03
            2440            2609     75.7879E-03     84.0386E-03
            2440            2610     69.5449E-03     77.5072E-03
            2441            2610     69.5449E-03     77.5072E-03
            2456            2610     69.5449E-03     77.5072E-03
            2457            2610     69.5449E-03     77.5072E-03
            2458            2611     63.6642E-03     71.2707E-03
            2441            2611     63.6642E-03     71.2707E-03
            2442            2611     63.6642E-03     71.2707E-03
            2457            2611     63.6642E-03     71.2707E-03
            2458            2612     58.1843E-03     65.3024E-03
            2442            2612     58.1843E-03     65.3024E-03
            2459            2612     58.1843E-03     65.3024E-03
            2443            2612     58.1843E-03     65.3024E-03
            2459            2613     53.2797E-03     59.7701E-03
            2460            2613     53.2797E-03     59.7701E-03
            2443            2613     53.2797E-03     59.7701E-03
            2444            2613     53.2797E-03     59.7701E-03
            2460            2614     49.1890E-03     54.6173E-03
            2445            2614     49.1890E-03     54.6173E-03
            2461            2614     49.1890E-03     54.6173E-03
            2444            2614     49.1890E-03     54.6173E-03
            2446            2615     45.9360E-03     50.0600E-03
            2461            2615     45.9360E-03     50.0600E-03
            2462            2615     45.9360E-03     50.0600E-03
            2445            2615     45.9360E-03     50.0600E-03
            2446            2616     44.1110E-03     46.1402E-03
            2462            2616     44.1110E-03     46.1402E-03
            2447            2616     44.1110E-03     46.1402E-03
            2463            2616     44.1110E-03     46.1402E-03
            2464            2617     44.4328E-03     42.0201E-03
            2447            2617     44.4328E-03     42.0201E-03
            2448            2617     44.4328E-03     42.0201E-03
            2463            2617     44.4328E-03     42.0201E-03
            2450            2618     133.107E-03     136.489E-03
            2465            2618     133.107E-03     136.489E-03
            2466            2618     133.107E-03     136.489E-03
            2449            2618     133.107E-03     136.489E-03
            2467            2619     116.759E-03     120.435E-03
            2466            2619     116.759E-03     120.435E-03
            2450            2619     116.759E-03     120.435E-03
            2451            2619     116.759E-03     120.435E-03
            2467            2620     108.067E-03     112.901E-03
            2451            2620     108.067E-03     112.901E-03
            2452            2620     108.067E-03     112.901E-03
            2468            2620     108.067E-03     112.901E-03
            2469            2621     100.991E-03     105.779E-03
            2452            2621     100.991E-03     105.779E-03
            2468            2621     100.991E-03     105.779E-03
            2453            2621     100.991E-03     105.779E-03
            2470            2622     94.3476E-03     98.6909E-03
            2453            2622     94.3476E-03     98.6909E-03
            2469            2622     94.3476E-03     98.6909E-03
            2454            2622     94.3476E-03     98.6909E-03
            2454            2623     87.3525E-03     91.3968E-03
            2455            2623     87.3525E-03     91.3968E-03
            2471            2623     87.3525E-03     91.3968E-03
            2470            2623     87.3525E-03     91.3968E-03
            2471            2624     80.6231E-03     84.4839E-03
            2472            2624     80.6231E-03     84.4839E-03
            2455            2624     80.6231E-03     84.4839E-03
            2456            2624     80.6231E-03     84.4839E-03
            2456            2625     74.2549E-03     77.9158E-03
            2457            2625     74.2549E-03     77.9158E-03
            2473            2625     74.2549E-03     77.9158E-03
            2472            2625     74.2549E-03     77.9158E-03
            2458            2626     68.3072E-03     71.7773E-03
            2457            2626     68.3072E-03     71.7773E-03
            2474            2626     68.3072E-03     71.7773E-03
            2473            2626     68.3072E-03     71.7773E-03
            2459            2627     62.8810E-03     66.1170E-03
            2475            2627     62.8810E-03     66.1170E-03
            2458            2627     62.8810E-03     66.1170E-03
            2474            2627     62.8810E-03     66.1170E-03
            2460            2628     58.0335E-03     60.9485E-03
            2459            2628     58.0335E-03     60.9485E-03
            2475            2628     58.0335E-03     60.9485E-03
            2476            2628     58.0335E-03     60.9485E-03
            2460            2629     53.9044E-03     56.4591E-03
            2476            2629     53.9044E-03     56.4591E-03
            2477            2629     53.9044E-03     56.4591E-03
            2461            2629     53.9044E-03     56.4591E-03
            2462            2630     51.0522E-03     52.3353E-03
            2478            2630     51.0522E-03     52.3353E-03
            2461            2630     51.0522E-03     52.3353E-03
            2477            2630     51.0522E-03     52.3353E-03
            2478            2631     49.7465E-03     48.0185E-03
            2462            2631     49.7465E-03     48.0185E-03
            2479            2631     49.7465E-03     48.0185E-03
            2463            2631     49.7465E-03     48.0185E-03
            2480            2632     49.3211E-03     44.6812E-03
            2464            2632     49.3211E-03     44.6812E-03
            2463            2632     49.3211E-03     44.6812E-03
            2479            2632     49.3211E-03     44.6812E-03
            2481            2633     106.378E-03     106.586E-03
            2465            2633     106.378E-03     106.586E-03
            2466            2633     106.378E-03     106.586E-03
            2482            2633     106.378E-03     106.586E-03
            2467            2634     99.8592E-03     102.969E-03
            2482            2634     99.8592E-03     102.969E-03
            2466            2634     99.8592E-03     102.969E-03
            2483            2634     99.8592E-03     102.969E-03
            2483            2635     104.638E-03     105.980E-03
            2484            2635     104.638E-03     105.980E-03
            2468            2635     104.638E-03     105.980E-03
            2467            2635     104.638E-03     105.980E-03
            2468            2636     103.400E-03     103.273E-03
            2469            2636     103.400E-03     103.273E-03
            2485            2636     103.400E-03     103.273E-03
            2484            2636     103.400E-03     103.273E-03
            2485            2637     97.4740E-03     97.2229E-03
            2470            2637     97.4740E-03     97.2229E-03
            2486            2637     97.4740E-03     97.2229E-03
            2469            2637     97.4740E-03     97.2229E-03
            2487            2638     91.1028E-03     90.6705E-03
            2471            2638     91.1028E-03     90.6705E-03
            2486            2638     91.1028E-03     90.6705E-03
            2470            2638     91.1028E-03     90.6705E-03
            2471            2639     84.4716E-03     84.0156E-03
            2472            2639     84.4716E-03     84.0156E-03
            2488            2639     84.4716E-03     84.0156E-03
            2487            2639     84.4716E-03     84.0156E-03
            2489            2640     78.2716E-03     77.8202E-03
            2473            2640     78.2716E-03     77.8202E-03
            2472            2640     78.2716E-03     77.8202E-03
            2488            2640     78.2716E-03     77.8202E-03
            2473            2641     72.5085E-03     72.0713E-03
            2489            2641     72.5085E-03     72.0713E-03
            2490            2641     72.5085E-03     72.0713E-03
            2474            2641     72.5085E-03     72.0713E-03
            2474            2642     67.2496E-03     66.8659E-03
            2475            2642     67.2496E-03     66.8659E-03
            2491            2642     67.2496E-03     66.8659E-03
            2490            2642     67.2496E-03     66.8659E-03
            2475            2643     62.5564E-03     62.2551E-03
            2491            2643     62.5564E-03     62.2551E-03
            2492            2643     62.5564E-03     62.2551E-03
            2476            2643     62.5564E-03     62.2551E-03
            2492            2644     58.4667E-03     58.3403E-03
            2493            2644     58.4667E-03     58.3403E-03
            2477            2644     58.4667E-03     58.3403E-03
            2476            2644     58.4667E-03     58.3403E-03
            2478            2645     55.3583E-03     55.1429E-03
            2494            2645     55.3583E-03     55.1429E-03
            2493            2645     55.3583E-03     55.1429E-03
            2477            2645     55.3583E-03     55.1429E-03
            2479            2646     53.8480E-03     51.9462E-03
            2494            2646     53.8480E-03     51.9462E-03
            2495            2646     53.8480E-03     51.9462E-03
            2478            2646     53.8480E-03     51.9462E-03
            2495            2647     53.3867E-03     48.7159E-03
            2496            2647     53.3867E-03     48.7159E-03
            2480            2647     53.3867E-03     48.7159E-03
            2479            2647     53.3867E-03     48.7159E-03
            2481            2648     79.5598E-03     78.5179E-03
            2482            2648     79.5598E-03     78.5179E-03
            2497            2648     79.5598E-03     78.5179E-03
            2498            2648     79.5598E-03     78.5179E-03
            2482            2649     86.8587E-03     84.8062E-03
            2499            2649     86.8587E-03     84.8062E-03
            2483            2649     86.8587E-03     84.8062E-03
            2498            2649     86.8587E-03     84.8062E-03
            2500            2650     100.218E-03     95.7727E-03
            2483            2650     100.218E-03     95.7727E-03
            2499            2650     100.218E-03     95.7727E-03
            2484            2650     100.218E-03     95.7727E-03
            2484            2651     101.541E-03     96.4672E-03
            2500            2651     101.541E-03     96.4672E-03
            2485            2651     101.541E-03     96.4672E-03
            2501            2651     101.541E-03     96.4672E-03
            2485            2652     98.2137E-03     93.0464E-03
            2502            2652     98.2137E-03     93.0464E-03
            2501            2652     98.2137E-03     93.0464E-03
            2486            2652     98.2137E-03     93.0464E-03
            2487            2653     92.7904E-03     87.8851E-03
            2503            2653     92.7904E-03     87.8851E-03
            2502            2653     92.7904E-03     87.8851E-03
            2486            2653     92.7904E-03     87.8851E-03
            2487            2654     87.1587E-03     82.4761E-03
            2488            2654     87.1587E-03     82.4761E-03
            2504            2654     87.1587E-03     82.4761E-03
            2503            2654     87.1587E-03     82.4761E-03
            2504            2655     81.5506E-03     77.1495E-03
            2505            2655     81.5506E-03     77.1495E-03
            2489            2655     81.5506E-03     77.1495E-03
            2488            2655     81.5506E-03     77.1495E-03
            2489            2656     76.2941E-03     72.1977E-03
            2505            2656     76.2941E-03     72.1977E-03
            2506            2656     76.2941E-03     72.1977E-03
            2490            2656     76.2941E-03     72.1977E-03
            2490            2657     71.4071E-03     67.6711E-03
            2506            2657     71.4071E-03     67.6711E-03
            2491            2657     71.4071E-03     67.6711E-03
            2507            2657     71.4071E-03     67.6711E-03
            2491            2658     66.9505E-03     63.7262E-03
            2508            2658     66.9505E-03     63.7262E-03
            2492            2658     66.9505E-03     63.7262E-03
            2507            2658     66.9505E-03     63.7262E-03
            2508            2659     63.0319E-03     60.3788E-03
            2492            2659     63.0319E-03     60.3788E-03
            2493            2659     63.0319E-03     60.3788E-03
            2509            2659     63.0319E-03     60.3788E-03
            2494            2660     59.3882E-03     58.0939E-03
            2510            2660     59.3882E-03     58.0939E-03
            2509            2660     59.3882E-03     58.0939E-03
            2493            2660     59.3882E-03     58.0939E-03
            2494            2661     56.6429E-03     57.1144E-03
            2495            2661     56.6429E-03     57.1144E-03
            2511            2661     56.6429E-03     57.1144E-03
            2510            2661     56.6429E-03     57.1144E-03
            2496            2662     56.5999E-03     55.2848E-03
            2511            2662     56.5999E-03     55.2848E-03
            2495            2662     56.5999E-03     55.2848E-03
            2512            2662     56.5999E-03     55.2848E-03
            2513            2663     60.9657E-03     58.4732E-03
            2514            2663     60.9657E-03     58.4732E-03
            2497            2663     60.9657E-03     58.4732E-03
            2498            2663     60.9657E-03     58.4732E-03
            2498            2664     78.1555E-03     66.5764E-03
            2515            2664     78.1555E-03     66.5764E-03
            2499            2664     78.1555E-03     66.5764E-03
            2514            2664     78.1555E-03     66.5764E-03
            2499            2665     92.8148E-03     81.2202E-03
            2515            2665     92.8148E-03     81.2202E-03
            2500            2665     92.8148E-03     81.2202E-03
            2516            2665     92.8148E-03     81.2202E-03
            2501            2666     96.7691E-03     86.1559E-03
            2500            2666     96.7691E-03     86.1559E-03
            2516            2666     96.7691E-03     86.1559E-03
            2517            2666     96.7691E-03     86.1559E-03
            2502            2667     96.1975E-03     86.2839E-03
            2501            2667     96.1975E-03     86.2839E-03
            2517            2667     96.1975E-03     86.2839E-03
            2518            2667     96.1975E-03     86.2839E-03
            2519            2668     93.1172E-03     83.7904E-03
            2518            2668     93.1172E-03     83.7904E-03
            2502            2668     93.1172E-03     83.7904E-03
            2503            2668     93.1172E-03     83.7904E-03
            2520            2669     88.9574E-03     80.2845E-03
            2503            2669     88.9574E-03     80.2845E-03
            2504            2669     88.9574E-03     80.2845E-03
            2519            2669     88.9574E-03     80.2845E-03
            2504            2670     84.4716E-03     76.3638E-03
            2505            2670     84.4716E-03     76.3638E-03
            2520            2670     84.4716E-03     76.3638E-03
            2521            2670     84.4716E-03     76.3638E-03
            2522            2671     79.9053E-03     72.4664E-03
            2506            2671     79.9053E-03     72.4664E-03
            2505            2671     79.9053E-03     72.4664E-03
            2521            2671     79.9053E-03     72.4664E-03
            2507            2672     75.5287E-03     68.8060E-03
            2522            2672     75.5287E-03     68.8060E-03
            2523            2672     75.5287E-03     68.8060E-03
            2506            2672     75.5287E-03     68.8060E-03
            2508            2673     71.3912E-03     65.5184E-03
            2524            2673     71.3912E-03     65.5184E-03
            2507            2673     71.3912E-03     65.5184E-03
            2523            2673     71.3912E-03     65.5184E-03
            2525            2674     67.6142E-03     62.8258E-03
            2524            2674     67.6142E-03     62.8258E-03
            2508            2674     67.6142E-03     62.8258E-03
            2509            2674     67.6142E-03     62.8258E-03
            2510            2675     64.1109E-03     60.8813E-03
            2525            2675     64.1109E-03     60.8813E-03
            2509            2675     64.1109E-03     60.8813E-03
            2526            2675     64.1109E-03     60.8813E-03
            2511            2676     60.5583E-03     60.5826E-03
            2526            2676     60.5583E-03     60.5826E-03
            2510            2676     60.5583E-03     60.5826E-03
            2527            2676     60.5583E-03     60.5826E-03
            2512            2677     57.5625E-03     62.3790E-03
            2527            2677     57.5625E-03     62.3790E-03
            2528            2677     57.5625E-03     62.3790E-03
            2511            2677     57.5625E-03     62.3790E-03
            2513            2678     33.6458E-03     32.0724E-03
            2530            2678     33.6458E-03     32.0724E-03
            2529            2678     33.6458E-03     32.0724E-03
            2514            2678     33.6458E-03     32.0724E-03
            2515            2679     43.0277E-03     34.4466E-03
            2530            2679     43.0277E-03     34.4466E-03
            2514            2679     43.0277E-03     34.4466E-03
            2531            2679     43.0277E-03     34.4466E-03
            2532            2680     49.0564E-03     41.7235E-03
            2515            2680     49.0564E-03     41.7235E-03
            2516            2680     49.0564E-03     41.7235E-03
            2531            2680     49.0564E-03     41.7235E-03
            2533            2681     51.9047E-03     45.3495E-03
            2516            2681     51.9047E-03     45.3495E-03
            2532            2681     51.9047E-03     45.3495E-03
            2517            2681     51.9047E-03     45.3495E-03
            2518            2682     51.8703E-03     45.9298E-03
            2533            2682     51.8703E-03     45.9298E-03
            2517            2682     51.8703E-03     45.9298E-03
            2534            2682     51.8703E-03     45.9298E-03
            2518            2683     50.7489E-03     45.2380E-03
            2535            2683     50.7489E-03     45.2380E-03
            2534            2683     50.7489E-03     45.2380E-03
            2519            2683     50.7489E-03     45.2380E-03
            2535            2684     48.7726E-03     43.6702E-03
            2520            2684     48.7726E-03     43.6702E-03
            2519            2684     48.7726E-03     43.6702E-03
            2536            2684     48.7726E-03     43.6702E-03
            2520            2685     46.5094E-03     41.7896E-03
            2521            2685     46.5094E-03     41.7896E-03
            2537            2685     46.5094E-03     41.7896E-03
            2536            2685     46.5094E-03     41.7896E-03
            2538            2686     44.1118E-03     39.8293E-03
            2522            2686     44.1118E-03     39.8293E-03
            2537            2686     44.1118E-03     39.8293E-03
            2521            2686     44.1118E-03     39.8293E-03
            2539            2687     41.7520E-03     37.9209E-03
            2522            2687     41.7520E-03     37.9209E-03
            2538            2687     41.7520E-03     37.9209E-03
            2523            2687     41.7520E-03     37.9209E-03
            2540            2688     39.4830E-03     36.1792E-03
            2539            2688     39.4830E-03     36.1792E-03
            2524            2688     39.4830E-03     36.1792E-03
            2523            2688     39.4830E-03     36.1792E-03
            2524            2689     37.4072E-03     34.7598E-03
            2541            2689     37.4072E-03     34.7598E-03
            2525            2689     37.4072E-03     34.7598E-03
            2540            2689     37.4072E-03     34.7598E-03
            2541            2690     35.4982E-03     33.5580E-03
            2542            2690     35.4982E-03     33.5580E-03
            2526            2690     35.4982E-03     33.5580E-03
            2525            2690     35.4982E-03     33.5580E-03
            2527            2691     33.7442E-03     33.2022E-03
            2526            2691     33.7442E-03     33.2022E-03
            2542            2691     33.7442E-03     33.2022E-03
            2543            2691     33.7442E-03     33.2022E-03
            2544            2692     30.8873E-03     34.3198E-03
            2527            2692     30.8873E-03     34.3198E-03
            2528            2692     30.8873E-03     34.3198E-03
            2543            2692     30.8873E-03     34.3198E-03
            2658            2768     358.165E-03     365.743E-03
            2641            2768     358.165E-03     365.743E-03
            2657            2768     358.165E-03     365.743E-03
            2642            2768     358.165E-03     365.743E-03
            2642            2769     336.601E-03     343.093E-03
            2643            2769     336.601E-03     343.093E-03
            2659            2769     336.601E-03     343.093E-03
            2658            2769     336.601E-03     343.093E-03
            2659            2770     312.470E-03     318.942E-03
            2644            2770     312.470E-03     318.942E-03
            2660            2770     312.470E-03     318.942E-03
            2643            2770     312.470E-03     318.942E-03
            2661            2771     288.428E-03     295.550E-03
            2660            2771     288.428E-03     295.550E-03
            2645            2771     288.428E-03     295.550E-03
            2644            2771     288.428E-03     295.550E-03
            2646            2772     264.891E-03     271.321E-03
            2661            2772     264.891E-03     271.321E-03
            2662            2772     264.891E-03     271.321E-03
            2645            2772     264.891E-03     271.321E-03
            2646            2773     240.800E-03     247.830E-03
            2662            2773     240.800E-03     247.830E-03
            2663            2773     240.800E-03     247.830E-03
            2647            2773     240.800E-03     247.830E-03
            2664            2774     217.280E-03     223.909E-03
            2648            2774     217.280E-03     223.909E-03
            2647            2774     217.280E-03     223.909E-03
            2663            2774     217.280E-03     223.909E-03
            2665            2775     193.521E-03     200.443E-03
            2648            2775     193.521E-03     200.443E-03
            2664            2775     193.521E-03     200.443E-03
            2649            2775     193.521E-03     200.443E-03
            2649            2776     170.106E-03     176.904E-03
            2665            2776     170.106E-03     176.904E-03
            2650            2776     170.106E-03     176.904E-03
            2666            2776     170.106E-03     176.904E-03
            2667            2777     146.771E-03     153.692E-03
            2650            2777     146.771E-03     153.692E-03
            2666            2777     146.771E-03     153.692E-03
            2651            2777     146.771E-03     153.692E-03
            2668            2778     123.798E-03     130.748E-03
            2667            2778     123.798E-03     130.748E-03
            2652            2778     123.798E-03     130.748E-03
            2651            2778     123.798E-03     130.748E-03
            2653            2779     101.336E-03     108.376E-03
            2669            2779     101.336E-03     108.376E-03
            2652            2779     101.336E-03     108.376E-03
            2668            2779     101.336E-03     108.376E-03
            2670            2780     79.9436E-03     86.9924E-03
            2653            2780     79.9436E-03     86.9924E-03
            2654            2780     79.9436E-03     86.9924E-03
            2669            2780     79.9436E-03     86.9924E-03
            2654            2781     60.9624E-03     67.6306E-03
            2671            2781     60.9624E-03     67.6306E-03
            2670            2781     60.9624E-03     67.6306E-03
            2655            2781     60.9624E-03     67.6306E-03
            2672            2782     48.1155E-03     52.2839E-03
            2671            2782     48.1155E-03     52.2839E-03
            2656            2782     48.1155E-03     52.2839E-03
            2655            2782     48.1155E-03     52.2839E-03
            2658            2783     338.021E-03     342.791E-03
            2657            2783     338.021E-03     342.791E-03
            2674            2783     338.021E-03     342.791E-03
            2673            2783     338.021E-03     342.791E-03
            2659            2784     312.578E-03     314.728E-03
            2674            2784     312.578E-03     314.728E-03
            2675            2784     312.578E-03     314.728E-03
            2658            2784     312.578E-03     314.728E-03
            2675            2785     289.185E-03     291.416E-03
            2676            2785     289.185E-03     291.416E-03
            2659            2785     289.185E-03     291.416E-03
            2660            2785     289.185E-03     291.416E-03
            2677            2786     267.799E-03     270.667E-03
            2676            2786     267.799E-03     270.667E-03
            2661            2786     267.799E-03     270.667E-03
            2660            2786     267.799E-03     270.667E-03
            2661            2787     246.099E-03     248.565E-03
            2662            2787     246.099E-03     248.565E-03
            2678            2787     246.099E-03     248.565E-03
            2677            2787     246.099E-03     248.565E-03
            2678            2788     223.978E-03     226.898E-03
            2663            2788     223.978E-03     226.898E-03
            2662            2788     223.978E-03     226.898E-03
            2679            2788     223.978E-03     226.898E-03
            2663            2789     202.303E-03     204.931E-03
            2680            2789     202.303E-03     204.931E-03
            2679            2789     202.303E-03     204.931E-03
            2664            2789     202.303E-03     204.931E-03
            2664            2790     180.409E-03     183.324E-03
            2665            2790     180.409E-03     183.324E-03
            2681            2790     180.409E-03     183.324E-03
            2680            2790     180.409E-03     183.324E-03
            2681            2791     158.840E-03     161.660E-03
            2666            2791     158.840E-03     161.660E-03
            2682            2791     158.840E-03     161.660E-03
            2665            2791     158.840E-03     161.660E-03
            2682            2792     137.325E-03     140.320E-03
            2666            2792     137.325E-03     140.320E-03
            2667            2792     137.325E-03     140.320E-03
            2683            2792     137.325E-03     140.320E-03
            2667            2793     116.183E-03     119.211E-03
            2684            2793     116.183E-03     119.211E-03
            2668            2793     116.183E-03     119.211E-03
            2683            2793     116.183E-03     119.211E-03
            2685            2794     95.4566E-03     98.7009E-03
            2669            2794     95.4566E-03     98.7009E-03
            2668            2794     95.4566E-03     98.7009E-03
            2684            2794     95.4566E-03     98.7009E-03
            2670            2795     75.6235E-03     79.2857E-03
            2686            2795     75.6235E-03     79.2857E-03
            2685            2795     75.6235E-03     79.2857E-03
            2669            2795     75.6235E-03     79.2857E-03
            2686            2796     58.4119E-03     61.7607E-03
            2671            2796     58.4119E-03     61.7607E-03
            2670            2796     58.4119E-03     61.7607E-03
            2687            2796     58.4119E-03     61.7607E-03
            2688            2797     44.7511E-03     45.6933E-03
            2672            2797     44.7511E-03     45.6933E-03
            2687            2797     44.7511E-03     45.6933E-03
            2671            2797     44.7511E-03     45.6933E-03
            2674            2798     314.619E-03     330.122E-03
            2690            2798     314.619E-03     330.122E-03
            2673            2798     314.619E-03     330.122E-03
            2689            2798     314.619E-03     330.122E-03
            2674            2799     279.633E-03     297.487E-03
            2691            2799     279.633E-03     297.487E-03
            2675            2799     279.633E-03     297.487E-03
            2690            2799     279.633E-03     297.487E-03
            2676            2800     257.669E-03     275.737E-03
            2675            2800     257.669E-03     275.737E-03
            2692            2800     257.669E-03     275.737E-03
            2691            2800     257.669E-03     275.737E-03
            2693            2801     237.942E-03     255.796E-03
            2676            2801     237.942E-03     255.796E-03
            2692            2801     237.942E-03     255.796E-03
            2677            2801     237.942E-03     255.796E-03
            2677            2802     217.689E-03     235.456E-03
            2694            2802     217.689E-03     235.456E-03
            2678            2802     217.689E-03     235.456E-03
            2693            2802     217.689E-03     235.456E-03
            2694            2803     197.580E-03     215.456E-03
            2679            2803     197.580E-03     215.456E-03
            2678            2803     197.580E-03     215.456E-03
            2695            2803     197.580E-03     215.456E-03
            2695            2804     177.603E-03     195.331E-03
            2696            2804     177.603E-03     195.331E-03
            2679            2804     177.603E-03     195.331E-03
            2680            2804     177.603E-03     195.331E-03
            2696            2805     157.669E-03     175.425E-03
            2681            2805     157.669E-03     175.425E-03
            2697            2805     157.669E-03     175.425E-03
            2680            2805     157.669E-03     175.425E-03
            2681            2806     137.937E-03     155.525E-03
            2697            2806     137.937E-03     155.525E-03
            2682            2806     137.937E-03     155.525E-03
            2698            2806     137.937E-03     155.525E-03
            2682            2807     118.349E-03     135.850E-03
            2699            2807     118.349E-03     135.850E-03
            2698            2807     118.349E-03     135.850E-03
            2683            2807     118.349E-03     135.850E-03
            2683            2808     99.1230E-03     116.353E-03
            2700            2808     99.1230E-03     116.353E-03
            2684            2808     99.1230E-03     116.353E-03
            2699            2808     99.1230E-03     116.353E-03
            2685            2809     80.3858E-03     97.2692E-03
            2684            2809     80.3858E-03     97.2692E-03
            2701            2809     80.3858E-03     97.2692E-03
            2700            2809     80.3858E-03     97.2692E-03
            2686            2810     62.8463E-03     78.7924E-03
            2702            2810     62.8463E-03     78.7924E-03
            2685            2810     62.8463E-03     78.7924E-03
            2701            2810     62.8463E-03     78.7924E-03
            2703            2811     48.4744E-03     62.1911E-03
            2702            2811     48.4744E-03     62.1911E-03
            2686            2811     48.4744E-03     62.1911E-03
            2687            2811     48.4744E-03     62.1911E-03
            2704            2812     40.4510E-03     47.8980E-03
            2687            2812     40.4510E-03     47.8980E-03
            2688            2812     40.4510E-03     47.8980E-03
            2703            2812     40.4510E-03     47.8980E-03
            2705            2813     296.791E-03     287.714E-03
            2689            2813     296.791E-03     287.714E-03
            2690            2813     296.791E-03     287.714E-03
            2706            2813     296.791E-03     287.714E-03
            2690            2814     291.065E-03     284.577E-03
            2706            2814     291.065E-03     284.577E-03
            2691            2814     291.065E-03     284.577E-03
            2707            2814     291.065E-03     284.577E-03
            2691            2815     271.185E-03     264.763E-03
            2707            2815     271.185E-03     264.763E-03
            2708            2815     271.185E-03     264.763E-03
            2692            2815     271.185E-03     264.763E-03
            2708            2816     251.525E-03     244.853E-03
            2692            2816     251.525E-03     244.853E-03
            2693            2816     251.525E-03     244.853E-03
            2709            2816     251.525E-03     244.853E-03
            2710            2817     231.781E-03     225.327E-03
            2709            2817     231.781E-03     225.327E-03
            2693            2817     231.781E-03     225.327E-03
            2694            2817     231.781E-03     225.327E-03
            2695            2818     212.248E-03     205.746E-03
            2710            2818     212.248E-03     205.746E-03
            2694            2818     212.248E-03     205.746E-03
            2711            2818     212.248E-03     205.746E-03
            2711            2819     192.575E-03     186.244E-03
            2712            2819     192.575E-03     186.244E-03
            2696            2819     192.575E-03     186.244E-03
            2695            2819     192.575E-03     186.244E-03
            2696            2820     173.089E-03     166.770E-03
            2712            2820     173.089E-03     166.770E-03
            2713            2820     173.089E-03     166.770E-03
            2697            2820     173.089E-03     166.770E-03
            2697            2821     153.693E-03     147.555E-03
            2713            2821     153.693E-03     147.555E-03
            2698            2821     153.693E-03     147.555E-03
            2714            2821     153.693E-03     147.555E-03
            2698            2822     134.609E-03     128.608E-03
            2699            2822     134.609E-03     128.608E-03
            2715            2822     134.609E-03     128.608E-03
            2714            2822     134.609E-03     128.608E-03
            2715            2823     115.887E-03     110.199E-03
            2699            2823     115.887E-03     110.199E-03
            2700            2823     115.887E-03     110.199E-03
            2716            2823     115.887E-03     110.199E-03
            2700            2824     97.8546E-03     92.5508E-03
            2716            2824     97.8546E-03     92.5508E-03
            2717            2824     97.8546E-03     92.5508E-03
            2701            2824     97.8546E-03     92.5508E-03
            2717            2825     81.0555E-03     76.1526E-03
            2701            2825     81.0555E-03     76.1526E-03
            2702            2825     81.0555E-03     76.1526E-03
            2718            2825     81.0555E-03     76.1526E-03
            2718            2826     66.2782E-03     62.8620E-03
            2702            2826     66.2782E-03     62.8620E-03
            2719            2826     66.2782E-03     62.8620E-03
            2703            2826     66.2782E-03     62.8620E-03
            2720            2827     55.3929E-03     54.9679E-03
            2704            2827     55.3929E-03     54.9679E-03
            2703            2827     55.3929E-03     54.9679E-03
            2719            2827     55.3929E-03     54.9679E-03
            2916            2952     20.2916E-15     21.7293E-15
            2931            2952     20.2916E-15     21.7293E-15
            2932            2952     20.2916E-15     21.7293E-15
            2915            2952     20.2916E-15     21.7293E-15
            2917            2953     14.3464E-15     14.9716E-15
            2932            2953     14.3464E-15     14.9716E-15
            2933            2953     14.3464E-15     14.9716E-15
            2916            2953     14.3464E-15     14.9716E-15
            2918            2954     11.0205E-15     11.6043E-15
            2934            2954     11.0205E-15     11.6043E-15
            2933            2954     11.0205E-15     11.6043E-15
            2917            2954     11.0205E-15     11.6043E-15
            2919            2955     10.5015E-15     11.2608E-15
            2918            2955     10.5015E-15     11.2608E-15
            2934            2955     10.5015E-15     11.2608E-15
            2935            2955     10.5015E-15     11.2608E-15
            2936            2956     7.74466E-15     8.02399E-15
            2919            2956     7.74466E-15     8.02399E-15
            2920            2956     7.74466E-15     8.02399E-15
            2935            2956     7.74466E-15     8.02399E-15
            2920            2957     14.9432E-15     16.2173E-15
            2921            2957     14.9432E-15     16.2173E-15
            2937            2957     14.9432E-15     16.2173E-15
            2936            2957     14.9432E-15     16.2173E-15
            2937            2958     18.7651E-15     20.1962E-15
            2921            2958     18.7651E-15     20.1962E-15
            2922            2958     18.7651E-15     20.1962E-15
            2938            2958     18.7651E-15     20.1962E-15
            2938            2959     12.1183E-15     12.3488E-15
            2922            2959     12.1183E-15     12.3488E-15
            2923            2959     12.1183E-15     12.3488E-15
            2939            2959     12.1183E-15     12.3488E-15
            2924            2960     11.7080E-15     9.64212E-15
            2923            2960     11.7080E-15     9.64212E-15
            2939            2960     11.7080E-15     9.64212E-15
            2940            2960     11.7080E-15     9.64212E-15
            2925            2961     14.6614E-15     10.4017E-15
            2924            2961     14.6614E-15     10.4017E-15
            2940            2961     14.6614E-15     10.4017E-15
            2941            2961     14.6614E-15     10.4017E-15
            2941            2962     13.2006E-15     12.1120E-15
            2926            2962     13.2006E-15     12.1120E-15
            2942            2962     13.2006E-15     12.1120E-15
            2925            2962     13.2006E-15     12.1120E-15
            2926            2963     14.9444E-15     19.0503E-15
            2927            2963     14.9444E-15     19.0503E-15
            2942            2963     14.9444E-15     19.0503E-15
            2943            2963     14.9444E-15     19.0503E-15
            2927            2964     20.8265E-15     22.0792E-15
            2943            2964     20.8265E-15     22.0792E-15
            2928            2964     20.8265E-15     22.0792E-15
            2944            2964     20.8265E-15     22.0792E-15
            2944            2965     18.1308E-15     18.4085E-15
            2929            2965     18.1308E-15     18.4085E-15
            2945            2965     18.1308E-15     18.4085E-15
            2928            2965     18.1308E-15     18.4085E-15
            2945            2966     12.8546E-15     21.0910E-15
            2929            2966     12.8546E-15     21.0910E-15
            2946            2966     12.8546E-15     21.0910E-15
            2930            2966     12.8546E-15     21.0910E-15
            2932            2967     13.0850E-15     12.7694E-15
            2948            2967     13.0850E-15     12.7694E-15
            2931            2967     13.0850E-15     12.7694E-15
            2947            2967     13.0850E-15     12.7694E-15
            2949            2968     14.5095E-15     14.3601E-15
            2948            2968     14.5095E-15     14.3601E-15
            2932            2968     14.5095E-15     14.3601E-15
            2933            2968     14.5095E-15     14.3601E-15
            2933            2969     12.0040E-15     12.1165E-15
            2949            2969     12.0040E-15     12.1165E-15
            2950            2969     12.0040E-15     12.1165E-15
            2934            2969     12.0040E-15     12.1165E-15
            2935            2970     7.14227E-15     6.99379E-15
            2934            2970     7.14227E-15     6.99379E-15
            2950            2970     7.14227E-15     6.99379E-15
            2951            2970     7.14227E-15     6.99379E-15
            2935            2971     8.23784E-15     7.69574E-15
            2951            2971     8.23784E-15     7.69574E-15
            2936            2971     8.23784E-15     7.69574E-15
            2952            2971     8.23784E-15     7.69574E-15
            2936            2972     17.5331E-15     18.1839E-15
            2953            2972     17.5331E-15     18.1839E-15
            2937            2972     17.5331E-15     18.1839E-15
            2952            2972     17.5331E-15     18.1839E-15
            2937            2973     24.9867E-15     25.8596E-15
            2953            2973     24.9867E-15     25.8596E-15
            2954            2973     24.9867E-15     25.8596E-15
            2938            2973     24.9867E-15     25.8596E-15
            2938            2974     19.2247E-15     17.6554E-15
            2954            2974     19.2247E-15     17.6554E-15
            2939            2974     19.2247E-15     17.6554E-15
            2955            2974     19.2247E-15     17.6554E-15
            2939            2975     13.6254E-15     11.1793E-15
            2940            2975     13.6254E-15     11.1793E-15
            2956            2975     13.6254E-15     11.1793E-15
            2955            2975     13.6254E-15     11.1793E-15
            2941            2976     14.5206E-15     12.7869E-15
            2956            2976     14.5206E-15     12.7869E-15
            2957            2976     14.5206E-15     12.7869E-15
            2940            2976     14.5206E-15     12.7869E-15
            2942            2977     14.0209E-15     13.0078E-15
            2941            2977     14.0209E-15     13.0078E-15
            2958            2977     14.0209E-15     13.0078E-15
            2957            2977     14.0209E-15     13.0078E-15
            2942            2978     13.6619E-15     16.2289E-15
            2959            2978     13.6619E-15     16.2289E-15
            2943            2978     13.6619E-15     16.2289E-15
            2958            2978     13.6619E-15     16.2289E-15
            2959            2979     21.3919E-15     21.1539E-15
            2943            2979     21.3919E-15     21.1539E-15
            2960            2979     21.3919E-15     21.1539E-15
            2944            2979     21.3919E-15     21.1539E-15
            2961            2980     21.5767E-15     22.1959E-15
            2945            2980     21.5767E-15     22.1959E-15
            2960            2980     21.5767E-15     22.1959E-15
            2944            2980     21.5767E-15     22.1959E-15
            2961            2981     13.7321E-15     18.8016E-15
            2945            2981     13.7321E-15     18.8016E-15
            2962            2981     13.7321E-15     18.8016E-15
            2946            2981     13.7321E-15     18.8016E-15
            2948            2982     11.6762E-15     12.5857E-15
            2963            2982     11.6762E-15     12.5857E-15
            2947            2982     11.6762E-15     12.5857E-15
            2964            2982     11.6762E-15     12.5857E-15
            2949            2983     15.0043E-15     15.2312E-15
            2964            2983     15.0043E-15     15.2312E-15
            2965            2983     15.0043E-15     15.2312E-15
            2948            2983     15.0043E-15     15.2312E-15
            2949            2984     16.0030E-15     15.9649E-15
            2965            2984     16.0030E-15     15.9649E-15
            2966            2984     16.0030E-15     15.9649E-15
            2950            2984     16.0030E-15     15.9649E-15
            2951            2985     9.98810E-15     10.6310E-15
            2966            2985     9.98810E-15     10.6310E-15
            2967            2985     9.98810E-15     10.6310E-15
            2950            2985     9.98810E-15     10.6310E-15
            2967            2986     11.2917E-15     11.7978E-15
            2968            2986     11.2917E-15     11.7978E-15
            2951            2986     11.2917E-15     11.7978E-15
            2952            2986     11.2917E-15     11.7978E-15
            2953            2987     17.2180E-15     15.9348E-15
            2969            2987     17.2180E-15     15.9348E-15
            2968            2987     17.2180E-15     15.9348E-15
            2952            2987     17.2180E-15     15.9348E-15
            2969            2988     20.8551E-15     20.2523E-15
            2970            2988     20.8551E-15     20.2523E-15
            2953            2988     20.8551E-15     20.2523E-15
            2954            2988     20.8551E-15     20.2523E-15
            2954            2989     19.2008E-15     19.3404E-15
            2970            2989     19.2008E-15     19.3404E-15
            2955            2989     19.2008E-15     19.3404E-15
            2971            2989     19.2008E-15     19.3404E-15
            2955            2990     12.7023E-15     11.5008E-15
            2956            2990     12.7023E-15     11.5008E-15
            2972            2990     12.7023E-15     11.5008E-15
            2971            2990     12.7023E-15     11.5008E-15
            2972            2991     11.8454E-15     11.4599E-15
            2973            2991     11.8454E-15     11.4599E-15
            2956            2991     11.8454E-15     11.4599E-15
            2957            2991     11.8454E-15     11.4599E-15
            2974            2992     11.6088E-15     11.1324E-15
            2957            2992     11.6088E-15     11.1324E-15
            2958            2992     11.6088E-15     11.1324E-15
            2973            2992     11.6088E-15     11.1324E-15
            2974            2993     8.26925E-15     9.92171E-15
            2958            2993     8.26925E-15     9.92171E-15
            2975            2993     8.26925E-15     9.92171E-15
            2959            2993     8.26925E-15     9.92171E-15
            2959            2994     17.7749E-15     16.9327E-15
            2976            2994     17.7749E-15     16.9327E-15
            2960            2994     17.7749E-15     16.9327E-15
            2975            2994     17.7749E-15     16.9327E-15
            2960            2995     21.9949E-15     21.6658E-15
            2976            2995     21.9949E-15     21.6658E-15
            2977            2995     21.9949E-15     21.6658E-15
            2961            2995     21.9949E-15     21.6658E-15
            2977            2996     13.9441E-15     14.8571E-15
            2961            2996     13.9441E-15     14.8571E-15
            2962            2996     13.9441E-15     14.8571E-15
            2978            2996     13.9441E-15     14.8571E-15
            2980            2997     14.7029E-15     16.2969E-15
            2964            2997     14.7029E-15     16.2969E-15
            2979            2997     14.7029E-15     16.2969E-15
            2963            2997     14.7029E-15     16.2969E-15
            2981            2998     13.3755E-15     13.8155E-15
            2980            2998     13.3755E-15     13.8155E-15
            2964            2998     13.3755E-15     13.8155E-15
            2965            2998     13.3755E-15     13.8155E-15
            2981            2999     14.7162E-15     15.2265E-15
            2966            2999     14.7162E-15     15.2265E-15
            2965            2999     14.7162E-15     15.2265E-15
            2982            2999     14.7162E-15     15.2265E-15
            2967            3000     9.56392E-15     10.8076E-15
            2982            3000     9.56392E-15     10.8076E-15
            2983            3000     9.56392E-15     10.8076E-15
            2966            3000     9.56392E-15     10.8076E-15
            2983            3001     12.8191E-15     13.8212E-15
            2984            3001     12.8191E-15     13.8212E-15
            2967            3001     12.8191E-15     13.8212E-15
            2968            3001     12.8191E-15     13.8212E-15
            2969            3002     13.0764E-15     13.3170E-15
            2968            3002     13.0764E-15     13.3170E-15
            2984            3002     13.0764E-15     13.3170E-15
            2985            3002     13.0764E-15     13.3170E-15
            2985            3003     14.4651E-15     14.9742E-15
            2969            3003     14.4651E-15     14.9742E-15
            2986            3003     14.4651E-15     14.9742E-15
            2970            3003     14.4651E-15     14.9742E-15
            2970            3004     16.3671E-15     16.2128E-15
            2987            3004     16.3671E-15     16.2128E-15
            2986            3004     16.3671E-15     16.2128E-15
            2971            3004     16.3671E-15     16.2128E-15
            2987            3005     11.0263E-15     7.88935E-15
            2971            3005     11.0263E-15     7.88935E-15
            2972            3005     11.0263E-15     7.88935E-15
            2988            3005     11.0263E-15     7.88935E-15
            2988            3006     10.2171E-15     7.64869E-15
            2973            3006     10.2171E-15     7.64869E-15
            2972            3006     10.2171E-15     7.64869E-15
            2989            3006     10.2171E-15     7.64869E-15
            2990            3007     8.78351E-15     9.26990E-15
            2989            3007     8.78351E-15     9.26990E-15
            2974            3007     8.78351E-15     9.26990E-15
            2973            3007     8.78351E-15     9.26990E-15
            2974            3008     8.71658E-15     7.88872E-15
            2990            3008     8.71658E-15     7.88872E-15
            2975            3008     8.71658E-15     7.88872E-15
            2991            3008     8.71658E-15     7.88872E-15
            2976            3009     14.2475E-15     15.5297E-15
            2992            3009     14.2475E-15     15.5297E-15
            2975            3009     14.2475E-15     15.5297E-15
            2991            3009     14.2475E-15     15.5297E-15
            2976            3010     13.5154E-15     17.9701E-15
            2993            3010     13.5154E-15     17.9701E-15
            2992            3010     13.5154E-15     17.9701E-15
            2977            3010     13.5154E-15     17.9701E-15
            2993            3011     8.49477E-15     8.75367E-15
            2977            3011     8.49477E-15     8.75367E-15
            2994            3011     8.49477E-15     8.75367E-15
            2978            3011     8.49477E-15     8.75367E-15
            2980            3012     15.9361E-15     18.4280E-15
            2995            3012     15.9361E-15     18.4280E-15
            2979            3012     15.9361E-15     18.4280E-15
            2996            3012     15.9361E-15     18.4280E-15
            2997            3013     14.8193E-15     16.1808E-15
            2996            3013     14.8193E-15     16.1808E-15
            2980            3013     14.8193E-15     16.1808E-15
            2981            3013     14.8193E-15     16.1808E-15
            2982            3014     14.5410E-15     15.1914E-15
            2981            3014     14.5410E-15     15.1914E-15
            2998            3014     14.5410E-15     15.1914E-15
            2997            3014     14.5410E-15     15.1914E-15
            2983            3015     10.5476E-15     10.9557E-15
            2982            3015     10.5476E-15     10.9557E-15
            2998            3015     10.5476E-15     10.9557E-15
            2999            3015     10.5476E-15     10.9557E-15
            2984            3016     16.1224E-15     16.5495E-15
            2983            3016     16.1224E-15     16.5495E-15
            3000            3016     16.1224E-15     16.5495E-15
            2999            3016     16.1224E-15     16.5495E-15
            2985            3017     14.8800E-15     16.1821E-15
            2984            3017     14.8800E-15     16.1821E-15
            3000            3017     14.8800E-15     16.1821E-15
            3001            3017     14.8800E-15     16.1821E-15
            3002            3018     16.4999E-15     15.1613E-15
            3001            3018     16.4999E-15     15.1613E-15
            2985            3018     16.4999E-15     15.1613E-15
            2986            3018     16.4999E-15     15.1613E-15
            2986            3019     18.2686E-15     12.4334E-15
            2987            3019     18.2686E-15     12.4334E-15
            3003            3019     18.2686E-15     12.4334E-15
            3002            3019     18.2686E-15     12.4334E-15
            3004            3020     12.2128E-15     6.85242E-15
            2987            3020     12.2128E-15     6.85242E-15
            3003            3020     12.2128E-15     6.85242E-15
            2988            3020     12.2128E-15     6.85242E-15
            3004            3021     10.7876E-15     7.65427E-15
            2988            3021     10.7876E-15     7.65427E-15
            2989            3021     10.7876E-15     7.65427E-15
            3005            3021     10.7876E-15     7.65427E-15
            2990            3022     8.50203E-15     8.28063E-15
            3006            3022     8.50203E-15     8.28063E-15
            2989            3022     8.50203E-15     8.28063E-15
            3005            3022     8.50203E-15     8.28063E-15
            2991            3023     13.8065E-15     9.77392E-15
            2990            3023     13.8065E-15     9.77392E-15
            3006            3023     13.8065E-15     9.77392E-15
            3007            3023     13.8065E-15     9.77392E-15
            2992            3024     17.2786E-15     16.1070E-15
            2991            3024     17.2786E-15     16.1070E-15
            3007            3024     17.2786E-15     16.1070E-15
            3008            3024     17.2786E-15     16.1070E-15
            3009            3025     14.1223E-15     16.7116E-15
            3008            3025     14.1223E-15     16.7116E-15
            2993            3025     14.1223E-15     16.7116E-15
            2992            3025     14.1223E-15     16.7116E-15
            3010            3026     10.7136E-15     12.6855E-15
            2994            3026     10.7136E-15     12.6855E-15
            2993            3026     10.7136E-15     12.6855E-15
            3009            3026     10.7136E-15     12.6855E-15


  Minimum                            5.80544E-15     4.74480E-15
      At Element                             621            3003
            Node                            1186             623

  Maximum                            408.144E-03     426.208E-03
      At Element                            1737            2641
            Node                             389              20

           Total                         390.070         402.635


