********************************************************************************
Field Output Report, written Fri Feb 15 18:33:08 2019

Source 1
---------

   ODB: C:/Scratch/CRJ700-19.odb
   Step: Jam1
   Frame: Increment      1: Step Time =    1.000

Loc 1 : Element nodal  values at shell < ALUMINIUM > < 5 section points > from source 1 : SNEG, (fraction = -1.0) ( Average criteria = 75%, Not averaged across region boundaries )
Loc 2 : Element nodal  values at shell < ALUMINIUM > < 5 section points > from source 1 : SPOS, (fraction = 1.0) ( Average criteria = 75%, Not averaged across region boundaries )

Output sorted by column "Node Label".

Field Output reported at element nodes for region: CRJ700-1.Region_1
   Computation algorithm: EXTRAPOLATE_COMPUTE_AVERAGE
   Averaged at nodes
   Averaging regions: ODB_REGIONS

   Element Label      Node Label         S.Mises         S.Mises
                                          @Loc 1          @Loc 2
-----------------------------------------------------------------
             645               2     10.8019E-03     10.9773E-03
            1858               2     10.8019E-03     10.9773E-03
            2023               3     350.174E-03     379.076E-03
            1648               3     350.174E-03     379.076E-03
            1618               5     8.02780E-03     8.20467E-03
             675               5     8.02780E-03     8.20467E-03
            1643               6     136.758E-06     223.017E-06
             641               8     26.8309E-03     26.9233E-03
            1622               8     26.8309E-03     26.9233E-03
             671               8     26.8309E-03     26.9233E-03
            1862               8     26.8309E-03     26.9233E-03
             670               9     136.758E-06     223.017E-06
            1647              10     506.066E-06     498.454E-06
             666              10     506.066E-06     498.454E-06
            2725              11     366.773E-03     396.210E-03
             840              11     366.773E-03     396.210E-03
             836              12     90.8566E-03     90.8336E-03
            2721              12     90.8566E-03     90.8336E-03
            1652              12     90.8566E-03     90.8336E-03
            2027              12     90.8566E-03     90.8336E-03
            1668              16     406.663E-03     448.918E-03
            2145              16     406.663E-03     448.918E-03
            1672              19     145.866E-03     144.335E-03
            1833              19     145.866E-03     144.335E-03
            2149              19     145.866E-03     144.335E-03
            2741              19     145.866E-03     144.335E-03
            1837              20     395.480E-03     439.078E-03
            2745              20     395.480E-03     439.078E-03
            2764              21     264.567E-03     298.582E-03
            2165              21     264.567E-03     298.582E-03
            1857              23     259.705E-03     292.677E-03
            2174              23     259.705E-03     292.677E-03
            1853              24     191.965E-03     193.798E-03
            2170              24     191.965E-03     193.798E-03
            2169              24     191.965E-03     193.798E-03
            2768              24     191.965E-03     193.798E-03
            3191              26     23.4282E-03     23.7478E-03
            2224              26     23.4282E-03     23.7478E-03
            2220              27     62.5103E-03     62.7355E-03
            2856              27     62.5103E-03     62.7355E-03
            3187              27     62.5103E-03     62.7355E-03
            2818              27     62.5103E-03     62.7355E-03
            2852              28     19.8959E-03     20.2176E-03
            2814              28     19.8959E-03     20.2176E-03
            2877              31     136.431E-06     223.115E-06
            3216              34     136.431E-06     223.115E-06
            3212              35     505.849E-06     498.347E-06
            2881              35     505.849E-06     498.347E-06
            1863              51     20.2269E-03     23.4414E-03
            1858              51     20.2269E-03     23.4414E-03
            1863              52     14.5474E-03     19.2154E-03
            1868              52     14.5474E-03     19.2154E-03
            1873              53     19.8186E-03     19.8828E-03
            1868              53     19.8186E-03     19.8828E-03
            1873              54     39.9991E-03     36.0687E-03
            1878              54     39.9991E-03     36.0687E-03
            1883              55     55.2159E-03     60.3584E-03
            1878              55     55.2159E-03     60.3584E-03
            1888              56     82.2949E-03     78.1606E-03
            1883              56     82.2949E-03     78.1606E-03
            1893              57     103.320E-03     103.000E-03
            1888              57     103.320E-03     103.000E-03
            1898              58     87.7687E-03     97.3306E-03
            1893              58     87.7687E-03     97.3306E-03
            1898              59     81.1954E-03     77.1739E-03
            1903              59     81.1954E-03     77.1739E-03
            1908              60     98.9784E-03     93.5987E-03
            1903              60     98.9784E-03     93.5987E-03
            1913              61     112.618E-03     119.718E-03
            1908              61     112.618E-03     119.718E-03
            1918              62     143.585E-03     136.730E-03
            1913              62     143.585E-03     136.730E-03
            1918              63     166.023E-03     163.683E-03
            1923              63     166.023E-03     163.683E-03
            1928              64     148.303E-03     165.038E-03
            1923              64     148.303E-03     165.038E-03
            1928              65     148.015E-03     139.709E-03
            1933              65     148.015E-03     139.709E-03
            1938              66     159.992E-03     157.611E-03
            1933              66     159.992E-03     157.611E-03
            1943              67     176.099E-03     174.579E-03
            1938              67     176.099E-03     174.579E-03
            1948              68     190.928E-03     198.136E-03
            1943              68     190.928E-03     198.136E-03
            1953              69     222.986E-03     215.243E-03
            1948              69     222.986E-03     215.243E-03
            1953              70     247.080E-03     241.808E-03
            1958              70     247.080E-03     241.808E-03
            1958              71     222.311E-03     247.506E-03
            1963              71     222.311E-03     247.506E-03
            1963              72     225.426E-03     214.475E-03
            1968              72     225.426E-03     214.475E-03
            1968              73     235.132E-03     230.755E-03
            1973              73     235.132E-03     230.755E-03
            1978              74     247.810E-03     247.490E-03
            1973              74     247.810E-03     247.490E-03
            1978              75     262.408E-03     270.679E-03
            1983              75     262.408E-03     270.679E-03
            1988              76     297.136E-03     287.478E-03
            1983              76     297.136E-03     287.478E-03
            1993              77     323.017E-03     315.107E-03
            1988              77     323.017E-03     315.107E-03
            1993              78     293.283E-03     325.990E-03
            1998              78     293.283E-03     325.990E-03
            2003              79     299.308E-03     289.357E-03
            1998              79     299.308E-03     289.357E-03
            2008              80     313.709E-03     297.590E-03
            2003              80     313.709E-03     297.590E-03
            2008              81     311.128E-03     330.932E-03
            2013              81     311.128E-03     330.932E-03
            2013              82     356.237E-03     338.688E-03
            2018              82     356.237E-03     338.688E-03
            2018              83     380.428E-03     372.351E-03
            2023              83     380.428E-03     372.351E-03
            1623             147     602.406E-06     599.686E-06
            1618             147     602.406E-06     599.686E-06
            1623             148     439.690E-06     425.041E-06
            1628             148     439.690E-06     425.041E-06
            1633             149     259.052E-06     282.640E-06
            1628             149     259.052E-06     282.640E-06
            1633             150     169.834E-06     146.241E-06
            1638             150     169.834E-06     146.241E-06
            1643             151     120.633E-06     174.036E-06
            1638             151     120.633E-06     174.036E-06
            1861             172     26.2483E-03     26.3471E-03
             641             172     26.2483E-03     26.3471E-03
             642             172     26.2483E-03     26.3471E-03
            1862             172     26.2483E-03     26.3471E-03
             643             173     23.6621E-03     23.7853E-03
            1860             173     23.6621E-03     23.7853E-03
            1861             173     23.6621E-03     23.7853E-03
             642             173     23.6621E-03     23.7853E-03
             643             174     19.3394E-03     19.5045E-03
             644             174     19.3394E-03     19.5045E-03
            1859             174     19.3394E-03     19.5045E-03
            1860             174     19.3394E-03     19.5045E-03
             645             175     13.7966E-03     13.9788E-03
            1859             175     13.7966E-03     13.9788E-03
            1858             175     13.7966E-03     13.9788E-03
             644             175     13.7966E-03     13.9788E-03
             645             176     602.406E-06     599.686E-06
             650             176     602.406E-06     599.686E-06
             655             177     439.690E-06     425.041E-06
             650             177     439.690E-06     425.041E-06
             660             178     259.052E-06     282.640E-06
             655             178     259.052E-06     282.640E-06
             665             179     169.834E-06     146.241E-06
             660             179     169.834E-06     146.241E-06
             670             180     120.633E-06     174.036E-06
             665             180     120.633E-06     174.036E-06
             670             181     156.086E-06     203.640E-06
             669             181     156.086E-06     203.640E-06
             669             182     240.796E-06     249.149E-06
             668             182     240.796E-06     249.149E-06
             667             183     376.765E-06     376.016E-06
             668             183     376.765E-06     376.016E-06
             666             184     476.709E-06     468.226E-06
             667             184     476.709E-06     468.226E-06
            1647             185     512.877E-06     503.254E-06
             666             185     512.877E-06     503.254E-06
             661             185     512.877E-06     503.254E-06
            1642             185     512.877E-06     503.254E-06
            1642             186     516.858E-06     506.735E-06
             656             186     516.858E-06     506.735E-06
            1637             186     516.858E-06     506.735E-06
             661             186     516.858E-06     506.735E-06
             651             187     511.223E-06     509.089E-06
            1632             187     511.223E-06     509.089E-06
            1637             187     511.223E-06     509.089E-06
             656             187     511.223E-06     509.089E-06
             651             188     516.502E-06     512.903E-06
            1632             188     516.502E-06     512.903E-06
            1627             188     516.502E-06     512.903E-06
             646             188     516.502E-06     512.903E-06
             646             189     514.378E-06     501.985E-06
            1622             189     514.378E-06     501.985E-06
            1627             189     514.378E-06     501.985E-06
             641             189     514.378E-06     501.985E-06
             672             190     25.3560E-03     25.4549E-03
            1622             190     25.3560E-03     25.4549E-03
            1621             190     25.3560E-03     25.4549E-03
             671             190     25.3560E-03     25.4549E-03
            1621             191     21.9684E-03     22.0919E-03
             673             191     21.9684E-03     22.0919E-03
            1620             191     21.9684E-03     22.0919E-03
             672             191     21.9684E-03     22.0919E-03
             673             192     17.0207E-03     17.1865E-03
             674             192     17.0207E-03     17.1865E-03
            1619             192     17.0207E-03     17.1865E-03
            1620             192     17.0207E-03     17.1865E-03
            1619             193     11.1212E-03     11.3046E-03
             675             193     11.1212E-03     11.3046E-03
            1618             193     11.1212E-03     11.3046E-03
             674             193     11.1212E-03     11.3046E-03
             675             194     14.0805E-03     18.3169E-03
             680             194     14.0805E-03     18.3169E-03
             685             195     8.94891E-03     16.5037E-03
             680             195     8.94891E-03     16.5037E-03
             685             196     18.2563E-03     20.7849E-03
             690             196     18.2563E-03     20.7849E-03
             690             197     42.2096E-03     38.4966E-03
             695             197     42.2096E-03     38.4966E-03
             695             198     57.9647E-03     63.1404E-03
             700             198     57.9647E-03     63.1404E-03
             700             199     85.6312E-03     81.5281E-03
             705             199     85.6312E-03     81.5281E-03
             710             200     107.535E-03     106.753E-03
             705             200     107.535E-03     106.753E-03
             710             201     90.0029E-03     99.9506E-03
             715             201     90.0029E-03     99.9506E-03
             720             202     82.9925E-03     79.4980E-03
             715             202     82.9925E-03     79.4980E-03
             725             203     103.181E-03     97.7800E-03
             720             203     103.181E-03     97.7800E-03
             725             204     117.632E-03     125.082E-03
             730             204     117.632E-03     125.082E-03
             735             205     149.808E-03     142.735E-03
             730             205     149.808E-03     142.735E-03
             735             206     173.429E-03     170.461E-03
             740             206     173.429E-03     170.461E-03
             745             207     153.587E-03     171.124E-03
             740             207     153.587E-03     171.124E-03
             745             208     152.848E-03     144.895E-03
             750             208     152.848E-03     144.895E-03
             755             209     166.686E-03     164.419E-03
             750             209     166.686E-03     164.419E-03
             760             210     183.918E-03     182.431E-03
             755             210     183.918E-03     182.431E-03
             765             211     199.263E-03     206.633E-03
             760             211     199.263E-03     206.633E-03
             765             212     232.538E-03     224.462E-03
             770             212     232.538E-03     224.462E-03
             770             213     257.836E-03     251.771E-03
             775             213     257.836E-03     251.771E-03
             775             214     230.852E-03     257.235E-03
             780             214     230.852E-03     257.235E-03
             785             215     233.739E-03     223.017E-03
             780             215     233.739E-03     223.017E-03
             790             216     245.154E-03     240.750E-03
             785             216     245.154E-03     240.750E-03
             795             217     258.790E-03     258.532E-03
             790             217     258.790E-03     258.532E-03
             795             218     273.903E-03     282.374E-03
             800             218     273.903E-03     282.374E-03
             805             219     309.997E-03     299.885E-03
             800             219     309.997E-03     299.885E-03
             805             220     337.138E-03     328.306E-03
             810             220     337.138E-03     328.306E-03
             810             221     305.074E-03     339.275E-03
             815             221     305.074E-03     339.275E-03
             820             222     311.052E-03     301.345E-03
             815             222     311.052E-03     301.345E-03
             825             223     327.369E-03     310.549E-03
             820             223     327.369E-03     310.549E-03
             825             224     324.845E-03     345.504E-03
             830             224     324.845E-03     345.504E-03
             835             225     371.888E-03     353.532E-03
             830             225     371.888E-03     353.532E-03
             840             226     397.418E-03     388.371E-03
             835             226     397.418E-03     388.371E-03
             839             227     339.209E-03     377.427E-03
             840             227     339.209E-03     377.427E-03
            2724             227     339.209E-03     377.427E-03
            2725             227     339.209E-03     377.427E-03
            2723             228     283.622E-03     322.434E-03
            2724             228     283.622E-03     322.434E-03
             838             228     283.622E-03     322.434E-03
             839             228     283.622E-03     322.434E-03
             838             229     216.470E-03     238.185E-03
            2723             229     216.470E-03     238.185E-03
             837             229     216.470E-03     238.185E-03
            2722             229     216.470E-03     238.185E-03
            2721             230     137.788E-03     144.878E-03
            2722             230     137.788E-03     144.878E-03
             837             230     137.788E-03     144.878E-03
             836             230     137.788E-03     144.878E-03
             836             231     96.4690E-03     92.9003E-03
            2027             231     96.4690E-03     92.9003E-03
             831             231     96.4690E-03     92.9003E-03
            2022             231     96.4690E-03     92.9003E-03
            2022             232     97.8361E-03     100.525E-03
             826             232     97.8361E-03     100.525E-03
             831             232     97.8361E-03     100.525E-03
            2017             232     97.8361E-03     100.525E-03
             821             233     95.9939E-03     100.432E-03
            2017             233     95.9939E-03     100.432E-03
             826             233     95.9939E-03     100.432E-03
            2012             233     95.9939E-03     100.432E-03
            2007             234     98.8517E-03     94.0008E-03
             816             234     98.8517E-03     94.0008E-03
             821             234     98.8517E-03     94.0008E-03
            2012             234     98.8517E-03     94.0008E-03
             811             235     95.5200E-03     95.0467E-03
            2007             235     95.5200E-03     95.0467E-03
             816             235     95.5200E-03     95.0467E-03
            2002             235     95.5200E-03     95.0467E-03
            1997             236     90.0521E-03     92.2646E-03
             806             236     90.0521E-03     92.2646E-03
             811             236     90.0521E-03     92.2646E-03
            2002             236     90.0521E-03     92.2646E-03
             801             237     92.6497E-03     89.9676E-03
            1992             237     92.6497E-03     89.9676E-03
             806             237     92.6497E-03     89.9676E-03
            1997             237     92.6497E-03     89.9676E-03
            1987             238     93.6254E-03     96.5917E-03
             801             238     93.6254E-03     96.5917E-03
             796             238     93.6254E-03     96.5917E-03
            1992             238     93.6254E-03     96.5917E-03
            1982             239     91.4740E-03     95.5533E-03
             791             239     91.4740E-03     95.5533E-03
            1987             239     91.4740E-03     95.5533E-03
             796             239     91.4740E-03     95.5533E-03
            1977             240     94.3028E-03     92.0097E-03
             786             240     94.3028E-03     92.0097E-03
            1982             240     94.3028E-03     92.0097E-03
             791             240     94.3028E-03     92.0097E-03
            1977             241     92.9616E-03     88.8231E-03
             781             241     92.9616E-03     88.8231E-03
             786             241     92.9616E-03     88.8231E-03
            1972             241     92.9616E-03     88.8231E-03
             776             242     90.3472E-03     89.1878E-03
             781             242     90.3472E-03     89.1878E-03
            1972             242     90.3472E-03     89.1878E-03
            1967             242     90.3472E-03     89.1878E-03
            1967             243     87.3347E-03     87.7357E-03
             776             243     87.3347E-03     87.7357E-03
             771             243     87.3347E-03     87.7357E-03
            1962             243     87.3347E-03     87.7357E-03
             771             244     88.6992E-03     86.4544E-03
            1962             244     88.6992E-03     86.4544E-03
            1957             244     88.6992E-03     86.4544E-03
             766             244     88.6992E-03     86.4544E-03
            1957             245     89.1013E-03     91.4179E-03
            1952             245     89.1013E-03     91.4179E-03
             761             245     89.1013E-03     91.4179E-03
             766             245     89.1013E-03     91.4179E-03
             756             246     87.3465E-03     90.0768E-03
            1947             246     87.3465E-03     90.0768E-03
             761             246     87.3465E-03     90.0768E-03
            1952             246     87.3465E-03     90.0768E-03
            1942             247     89.4959E-03     87.3275E-03
             756             247     89.4959E-03     87.3275E-03
             751             247     89.4959E-03     87.3275E-03
            1947             247     89.4959E-03     87.3275E-03
             751             248     88.5501E-03     85.4739E-03
            1942             248     88.5501E-03     85.4739E-03
            1937             248     88.5501E-03     85.4739E-03
             746             248     88.5501E-03     85.4739E-03
            1932             249     86.8787E-03     85.8429E-03
             746             249     86.8787E-03     85.8429E-03
            1937             249     86.8787E-03     85.8429E-03
             741             249     86.8787E-03     85.8429E-03
             741             250     84.8228E-03     84.4366E-03
            1932             250     84.8228E-03     84.4366E-03
             736             250     84.8228E-03     84.4366E-03
            1927             250     84.8228E-03     84.4366E-03
            1927             251     85.4327E-03     83.4449E-03
             736             251     85.4327E-03     83.4449E-03
            1922             251     85.4327E-03     83.4449E-03
             731             251     85.4327E-03     83.4449E-03
            1917             252     85.6710E-03     86.6264E-03
            1922             252     85.6710E-03     86.6264E-03
             731             252     85.6710E-03     86.6264E-03
             726             252     85.6710E-03     86.6264E-03
             726             253     84.8729E-03     85.5613E-03
            1912             253     84.8729E-03     85.5613E-03
             721             253     84.8729E-03     85.5613E-03
            1917             253     84.8729E-03     85.5613E-03
             721             254     86.0281E-03     83.7922E-03
            1907             254     86.0281E-03     83.7922E-03
            1912             254     86.0281E-03     83.7922E-03
             716             254     86.0281E-03     83.7922E-03
            1907             255     84.9253E-03     84.3105E-03
            1902             255     84.9253E-03     84.3105E-03
             711             255     84.9253E-03     84.3105E-03
             716             255     84.9253E-03     84.3105E-03
            1902             256     83.9178E-03     83.3673E-03
             706             256     83.9178E-03     83.3673E-03
             711             256     83.9178E-03     83.3673E-03
            1897             256     83.9178E-03     83.3673E-03
             706             257     85.1820E-03     83.6596E-03
            1892             257     85.1820E-03     83.6596E-03
            1897             257     85.1820E-03     83.6596E-03
             701             257     85.1820E-03     83.6596E-03
             701             258     85.2153E-03     85.7867E-03
            1887             258     85.2153E-03     85.7867E-03
             696             258     85.2153E-03     85.7867E-03
            1892             258     85.2153E-03     85.7867E-03
            1882             259     84.4220E-03     84.6859E-03
            1887             259     84.4220E-03     84.6859E-03
             696             259     84.4220E-03     84.6859E-03
             691             259     84.4220E-03     84.6859E-03
            1877             260     85.0120E-03     83.9100E-03
            1882             260     85.0120E-03     83.9100E-03
             686             260     85.0120E-03     83.9100E-03
             691             260     85.0120E-03     83.9100E-03
             686             261     85.0469E-03     84.1387E-03
            1872             261     85.0469E-03     84.1387E-03
             681             261     85.0469E-03     84.1387E-03
            1877             261     85.0469E-03     84.1387E-03
             676             262     84.6572E-03     83.4848E-03
            1872             262     84.6572E-03     83.4848E-03
             681             262     84.6572E-03     83.4848E-03
            1867             262     84.6572E-03     83.4848E-03
             676             263     68.6797E-03     68.2726E-03
             671             263     68.6797E-03     68.2726E-03
            1867             263     68.6797E-03     68.2726E-03
            1862             263     68.6797E-03     68.2726E-03
            1648             314     342.812E-03     355.153E-03
            1653             314     342.812E-03     355.153E-03
            1653             315     369.247E-03     371.314E-03
            1658             315     369.247E-03     371.314E-03
            1663             316     413.205E-03     381.830E-03
            1658             316     413.205E-03     381.830E-03
            1663             317     425.537E-03     425.083E-03
            1668             317     425.537E-03     425.083E-03
            1646             358     476.709E-06     468.226E-06
            1647             358     476.709E-06     468.226E-06
            1646             359     376.765E-06     376.016E-06
            1645             359     376.765E-06     376.016E-06
            1644             360     240.796E-06     249.149E-06
            1645             360     240.796E-06     249.149E-06
            1643             361     156.086E-06     203.640E-06
            1644             361     156.086E-06     203.640E-06
            2023             362     321.349E-03     358.432E-03
            1649             362     321.349E-03     358.432E-03
            2024             362     321.349E-03     358.432E-03
            1648             362     321.349E-03     358.432E-03
            1650             363     263.416E-03     299.990E-03
            2025             363     263.416E-03     299.990E-03
            1649             363     263.416E-03     299.990E-03
            2024             363     263.416E-03     299.990E-03
            2026             364     194.803E-03     213.684E-03
            1650             364     194.803E-03     213.684E-03
            1651             364     194.803E-03     213.684E-03
            2025             364     194.803E-03     213.684E-03
            2027             365     119.389E-03     123.616E-03
            1651             365     119.389E-03     123.616E-03
            1652             365     119.389E-03     123.616E-03
            2026             365     119.389E-03     123.616E-03
            2726             366     113.181E-03     117.677E-03
            1652             366     113.181E-03     117.677E-03
            1657             366     113.181E-03     117.677E-03
            2721             366     113.181E-03     117.677E-03
            2731             367     130.806E-03     138.019E-03
            1662             367     130.806E-03     138.019E-03
            2726             367     130.806E-03     138.019E-03
            1657             367     130.806E-03     138.019E-03
            1667             368     135.356E-03     134.842E-03
            1662             368     135.356E-03     134.842E-03
            2736             368     135.356E-03     134.842E-03
            2731             368     135.356E-03     134.842E-03
            2741             369     134.591E-03     130.171E-03
            1672             369     134.591E-03     130.171E-03
            2736             369     134.591E-03     130.171E-03
            1667             369     134.591E-03     130.171E-03
            2148             370     176.582E-03     186.989E-03
            1672             370     176.582E-03     186.989E-03
            1671             370     176.582E-03     186.989E-03
            2149             370     176.582E-03     186.989E-03
            2147             371     245.032E-03     272.703E-03
            1671             371     245.032E-03     272.703E-03
            2148             371     245.032E-03     272.703E-03
            1670             371     245.032E-03     272.703E-03
            1670             372     308.593E-03     354.085E-03
            2146             372     308.593E-03     354.085E-03
            2147             372     308.593E-03     354.085E-03
            1669             372     308.593E-03     354.085E-03
            2145             373     370.898E-03     419.571E-03
            1668             373     370.898E-03     419.571E-03
            1669             373     370.898E-03     419.571E-03
            2146             373     370.898E-03     419.571E-03
            2740             389     413.844E-03     419.675E-03
            2745             389     413.844E-03     419.675E-03
            2735             390     421.570E-03     390.123E-03
            2740             390     421.570E-03     390.123E-03
            2735             391     398.568E-03     394.580E-03
            2730             391     398.568E-03     394.580E-03
            2725             392     367.564E-03     378.590E-03
            2730             392     367.564E-03     378.590E-03
            2145             393     372.592E-03     378.466E-03
            2150             393     372.592E-03     378.466E-03
            2155             394     355.454E-03     373.056E-03
            2150             394     355.454E-03     373.056E-03
            2160             395     361.039E-03     356.427E-03
            2155             395     361.039E-03     356.427E-03
            2165             396     303.907E-03     274.054E-03
            2160             396     303.907E-03     274.054E-03
            2741             416     178.564E-03     181.493E-03
            2742             416     178.564E-03     181.493E-03
            1834             416     178.564E-03     181.493E-03
            1833             416     178.564E-03     181.493E-03
            1834             417     247.803E-03     265.767E-03
            1835             417     247.803E-03     265.767E-03
            2743             417     247.803E-03     265.767E-03
            2742             417     247.803E-03     265.767E-03
            2744             418     308.631E-03     346.363E-03
            2743             418     308.631E-03     346.363E-03
            1836             418     308.631E-03     346.363E-03
            1835             418     308.631E-03     346.363E-03
            1837             419     363.844E-03     410.553E-03
            1836             419     363.844E-03     410.553E-03
            2744             419     363.844E-03     410.553E-03
            2745             419     363.844E-03     410.553E-03
            1837             420     364.041E-03     369.966E-03
            1842             420     364.041E-03     369.966E-03
            1842             421     346.241E-03     364.141E-03
            1847             421     346.241E-03     364.141E-03
            1852             422     351.656E-03     347.948E-03
            1847             422     351.656E-03     347.948E-03
            1852             423     298.038E-03     268.108E-03
            1857             423     298.038E-03     268.108E-03
            1856             424     243.475E-03     288.012E-03
            1857             424     243.475E-03     288.012E-03
            2174             424     243.475E-03     288.012E-03
            2173             424     243.475E-03     288.012E-03
            2172             425     223.787E-03     266.762E-03
            2173             425     223.787E-03     266.762E-03
            1855             425     223.787E-03     266.762E-03
            1856             425     223.787E-03     266.762E-03
            2171             426     211.374E-03     231.784E-03
            1854             426     211.374E-03     231.784E-03
            2172             426     211.374E-03     231.784E-03
            1855             426     211.374E-03     231.784E-03
            1854             427     197.154E-03     203.384E-03
            2171             427     197.154E-03     203.384E-03
            1853             427     197.154E-03     203.384E-03
            2170             427     197.154E-03     203.384E-03
            2164             428     198.329E-03     199.724E-03
            1848             428     198.329E-03     199.724E-03
            1853             428     198.329E-03     199.724E-03
            2169             428     198.329E-03     199.724E-03
            2164             429     200.642E-03     193.154E-03
            2159             429     200.642E-03     193.154E-03
            1848             429     200.642E-03     193.154E-03
            1843             429     200.642E-03     193.154E-03
            1843             430     212.201E-03     207.280E-03
            1838             430     212.201E-03     207.280E-03
            2159             430     212.201E-03     207.280E-03
            2154             430     212.201E-03     207.280E-03
            2149             431     197.072E-03     195.034E-03
            2154             431     197.072E-03     195.034E-03
            1833             431     197.072E-03     195.034E-03
            1838             431     197.072E-03     195.034E-03
            2168             440     197.307E-03     204.783E-03
            2767             440     197.307E-03     204.783E-03
            2169             440     197.307E-03     204.783E-03
            2768             440     197.307E-03     204.783E-03
            2168             441     212.045E-03     234.411E-03
            2767             441     212.045E-03     234.411E-03
            2167             441     212.045E-03     234.411E-03
            2766             441     212.045E-03     234.411E-03
            2765             442     225.576E-03     270.707E-03
            2167             442     225.576E-03     270.707E-03
            2166             442     225.576E-03     270.707E-03
            2766             442     225.576E-03     270.707E-03
            2166             443     247.101E-03     293.260E-03
            2165             443     247.101E-03     293.260E-03
            2764             443     247.101E-03     293.260E-03
            2765             443     247.101E-03     293.260E-03
            2174             444     268.249E-03     267.910E-03
            2179             444     268.249E-03     267.910E-03
            2179             445     219.858E-03     191.124E-03
            2184             445     219.858E-03     191.124E-03
            2189             446     207.117E-03     235.001E-03
            2184             446     207.117E-03     235.001E-03
            2194             447     242.054E-03     241.279E-03
            2189             447     242.054E-03     241.279E-03
            2194             448     193.175E-03     182.965E-03
            2199             448     193.175E-03     182.965E-03
            2204             449     129.288E-03     141.482E-03
            2199             449     129.288E-03     141.482E-03
            2204             450     93.3886E-03     84.3129E-03
            2209             450     93.3886E-03     84.3129E-03
            2214             451     43.8536E-03     45.3531E-03
            2209             451     43.8536E-03     45.3531E-03
            2219             452     29.5463E-03     42.6898E-03
            2214             452     29.5463E-03     42.6898E-03
            2224             453     43.6769E-03     52.1463E-03
            2219             453     43.6769E-03     52.1463E-03
            3190             454     30.5655E-03     30.8895E-03
            2224             454     30.5655E-03     30.8895E-03
            3191             454     30.5655E-03     30.8895E-03
            2223             454     30.5655E-03     30.8895E-03
            2222             455     43.7940E-03     44.0966E-03
            3190             455     43.7940E-03     44.0966E-03
            2223             455     43.7940E-03     44.0966E-03
            3189             455     43.7940E-03     44.0966E-03
            2222             456     54.2184E-03     54.4764E-03
            2221             456     54.2184E-03     54.4764E-03
            3188             456     54.2184E-03     54.4764E-03
            3189             456     54.2184E-03     54.4764E-03
            3188             457     60.6769E-03     60.9089E-03
            2221             457     60.6769E-03     60.9089E-03
            3187             457     60.6769E-03     60.9089E-03
            2220             457     60.6769E-03     60.9089E-03
            2818             458     161.460E-03     160.549E-03
            2813             458     161.460E-03     160.549E-03
            2215             458     161.460E-03     160.549E-03
            2220             458     161.460E-03     160.549E-03
            2210             459     199.503E-03     196.828E-03
            2813             459     199.503E-03     196.828E-03
            2808             459     199.503E-03     196.828E-03
            2215             459     199.503E-03     196.828E-03
            2803             460     200.498E-03     198.360E-03
            2205             460     200.498E-03     198.360E-03
            2210             460     200.498E-03     198.360E-03
            2808             460     200.498E-03     198.360E-03
            2200             461     200.353E-03     197.798E-03
            2205             461     200.353E-03     197.798E-03
            2798             461     200.353E-03     197.798E-03
            2803             461     200.353E-03     197.798E-03
            2793             462     198.946E-03     199.538E-03
            2798             462     198.946E-03     199.538E-03
            2195             462     198.946E-03     199.538E-03
            2200             462     198.946E-03     199.538E-03
            2788             463     200.753E-03     201.930E-03
            2195             463     200.753E-03     201.930E-03
            2190             463     200.753E-03     201.930E-03
            2793             463     200.753E-03     201.930E-03
            2783             464     200.507E-03     196.845E-03
            2190             464     200.507E-03     196.845E-03
            2788             464     200.507E-03     196.845E-03
            2185             464     200.507E-03     196.845E-03
            2778             465     192.954E-03     194.827E-03
            2783             465     192.954E-03     194.827E-03
            2180             465     192.954E-03     194.827E-03
            2185             465     192.954E-03     194.827E-03
            2180             466     194.109E-03     194.787E-03
            2175             466     194.109E-03     194.787E-03
            2778             466     194.109E-03     194.787E-03
            2773             466     194.109E-03     194.787E-03
            2773             467     195.771E-03     188.903E-03
            2175             467     195.771E-03     188.903E-03
            2768             467     195.771E-03     188.903E-03
            2170             467     195.771E-03     188.903E-03
            2769             470     275.367E-03     274.256E-03
            2764             470     275.367E-03     274.256E-03
            2769             471     223.989E-03     195.347E-03
            2774             471     223.989E-03     195.347E-03
            2774             472     210.312E-03     238.990E-03
            2779             472     210.312E-03     238.990E-03
            2779             473     247.371E-03     246.007E-03
            2784             473     247.371E-03     246.007E-03
            2789             474     197.414E-03     187.238E-03
            2784             474     197.414E-03     187.238E-03
            2789             475     132.785E-03     145.032E-03
            2794             475     132.785E-03     145.032E-03
            2799             476     96.2306E-03     87.4632E-03
            2794             476     96.2306E-03     87.4632E-03
            2799             477     41.5623E-03     46.6149E-03
            2804             477     41.5623E-03     46.6149E-03
            2809             478     22.0846E-03     39.3532E-03
            2804             478     22.0846E-03     39.3532E-03
            2809             479     35.8550E-03     45.6722E-03
            2814             479     35.8550E-03     45.6722E-03
            2857             562     599.245E-06     596.761E-06
            2852             562     599.245E-06     596.761E-06
            2857             563     437.820E-06     422.783E-06
            2862             563     437.820E-06     422.783E-06
            2867             564     257.651E-06     281.364E-06
            2862             564     257.651E-06     281.364E-06
            2872             565     169.457E-06     145.888E-06
            2867             565     169.457E-06     145.888E-06
            2872             566     120.861E-06     174.030E-06
            2877             566     120.861E-06     174.030E-06
            3211             596     120.861E-06     174.030E-06
            3216             596     120.861E-06     174.030E-06
            3206             597     169.457E-06     145.888E-06
            3211             597     169.457E-06     145.888E-06
            3206             598     257.651E-06     281.364E-06
            3201             598     257.651E-06     281.364E-06
            3196             599     437.820E-06     422.783E-06
            3201             599     437.820E-06     422.783E-06
            3196             600     599.245E-06     596.761E-06
            3191             600     599.245E-06     596.761E-06
            2817             601     59.5394E-03     59.7715E-03
            2856             601     59.5394E-03     59.7715E-03
            2855             601     59.5394E-03     59.7715E-03
            2818             601     59.5394E-03     59.7715E-03
            2854             602     52.0593E-03     52.3176E-03
            2816             602     52.0593E-03     52.3176E-03
            2817             602     52.0593E-03     52.3176E-03
            2855             602     52.0593E-03     52.3176E-03
            2853             603     40.8388E-03     41.1423E-03
            2816             603     40.8388E-03     41.1423E-03
            2854             603     40.8388E-03     41.1423E-03
            2815             603     40.8388E-03     41.1423E-03
            2852             604     27.1576E-03     27.4832E-03
            2815             604     27.1576E-03     27.4832E-03
            2814             604     27.1576E-03     27.4832E-03
            2853             604     27.1576E-03     27.4832E-03
            3192             607     514.128E-06     501.678E-06
            2861             607     514.128E-06     501.678E-06
            3187             607     514.128E-06     501.678E-06
            2856             607     514.128E-06     501.678E-06
            2866             608     516.322E-06     512.613E-06
            3197             608     516.322E-06     512.613E-06
            3192             608     516.322E-06     512.613E-06
            2861             608     516.322E-06     512.613E-06
            3202             609     511.046E-06     508.951E-06
            2871             609     511.046E-06     508.951E-06
            2866             609     511.046E-06     508.951E-06
            3197             609     511.046E-06     508.951E-06
            2871             610     516.656E-06     506.562E-06
            3202             610     516.656E-06     506.562E-06
            3207             610     516.656E-06     506.562E-06
            2876             610     516.656E-06     506.562E-06
            2876             611     512.680E-06     503.077E-06
            3212             611     512.680E-06     503.077E-06
            3207             611     512.680E-06     503.077E-06
            2881             611     512.680E-06     503.077E-06
            2880             612     476.606E-06     468.179E-06
            2881             612     476.606E-06     468.179E-06
            2880             613     376.828E-06     376.023E-06
            2879             613     376.828E-06     376.023E-06
            2879             614     240.782E-06     249.018E-06
            2878             614     240.782E-06     249.018E-06
            2877             615     155.852E-06     203.558E-06
            2878             615     155.852E-06     203.558E-06
            3216             631     155.852E-06     203.558E-06
            3215             631     155.852E-06     203.558E-06
            3215             632     240.782E-06     249.018E-06
            3214             632     240.782E-06     249.018E-06
            3213             633     376.828E-06     376.023E-06
            3214             633     376.828E-06     376.023E-06
            3213             634     476.606E-06     468.179E-06
            3212             634     476.606E-06     468.179E-06
             647            1205     509.363E-06     494.572E-06
             641            1205     509.363E-06     494.572E-06
             642            1205     509.363E-06     494.572E-06
             646            1205     509.363E-06     494.572E-06
             648            1206     484.048E-06     469.183E-06
             647            1206     484.048E-06     469.183E-06
             643            1206     484.048E-06     469.183E-06
             642            1206     484.048E-06     469.183E-06
             649            1207     462.781E-06     459.052E-06
             648            1207     462.781E-06     459.052E-06
             643            1207     462.781E-06     459.052E-06
             644            1207     462.781E-06     459.052E-06
             645            1208     532.110E-06     533.292E-06
             650            1208     532.110E-06     533.292E-06
             644            1208     532.110E-06     533.292E-06
             649            1208     532.110E-06     533.292E-06
             646            1209     503.881E-06     495.136E-06
             651            1209     503.881E-06     495.136E-06
             647            1209     503.881E-06     495.136E-06
             652            1209     503.881E-06     495.136E-06
             648            1210     463.633E-06     440.759E-06
             652            1210     463.633E-06     440.759E-06
             653            1210     463.633E-06     440.759E-06
             647            1210     463.633E-06     440.759E-06
             654            1211     414.811E-06     386.320E-06
             648            1211     414.811E-06     386.320E-06
             649            1211     414.811E-06     386.320E-06
             653            1211     414.811E-06     386.320E-06
             649            1212     416.654E-06     396.765E-06
             654            1212     416.654E-06     396.765E-06
             650            1212     416.654E-06     396.765E-06
             655            1212     416.654E-06     396.765E-06
             657            1213     483.536E-06     486.052E-06
             656            1213     483.536E-06     486.052E-06
             652            1213     483.536E-06     486.052E-06
             651            1213     483.536E-06     486.052E-06
             657            1214     410.353E-06     422.654E-06
             658            1214     410.353E-06     422.654E-06
             653            1214     410.353E-06     422.654E-06
             652            1214     410.353E-06     422.654E-06
             653            1215     304.516E-06     324.682E-06
             659            1215     304.516E-06     324.682E-06
             658            1215     304.516E-06     324.682E-06
             654            1215     304.516E-06     324.682E-06
             659            1216     251.614E-06     274.857E-06
             654            1216     251.614E-06     274.857E-06
             660            1216     251.614E-06     274.857E-06
             655            1216     251.614E-06     274.857E-06
             661            1217     484.885E-06     477.690E-06
             662            1217     484.885E-06     477.690E-06
             657            1217     484.885E-06     477.690E-06
             656            1217     484.885E-06     477.690E-06
             657            1218     397.522E-06     396.205E-06
             658            1218     397.522E-06     396.205E-06
             663            1218     397.522E-06     396.205E-06
             662            1218     397.522E-06     396.205E-06
             658            1219     268.664E-06     259.272E-06
             663            1219     268.664E-06     259.272E-06
             664            1219     268.664E-06     259.272E-06
             659            1219     268.664E-06     259.272E-06
             665            1220     182.515E-06     160.509E-06
             660            1220     182.515E-06     160.509E-06
             664            1220     182.515E-06     160.509E-06
             659            1220     182.515E-06     160.509E-06
             661            1221     481.279E-06     472.828E-06
             667            1221     481.279E-06     472.828E-06
             666            1221     481.279E-06     472.828E-06
             662            1221     481.279E-06     472.828E-06
             662            1222     383.876E-06     384.769E-06
             667            1222     383.876E-06     384.769E-06
             663            1222     383.876E-06     384.769E-06
             668            1222     383.876E-06     384.769E-06
             669            1223     242.616E-06     255.634E-06
             663            1223     242.616E-06     255.634E-06
             664            1223     242.616E-06     255.634E-06
             668            1223     242.616E-06     255.634E-06
             664            1224     143.898E-06     179.083E-06
             670            1224     143.898E-06     179.083E-06
             665            1224     143.898E-06     179.083E-06
             669            1224     143.898E-06     179.083E-06
             672            1225     64.2668E-03     63.9231E-03
             677            1225     64.2668E-03     63.9231E-03
             671            1225     64.2668E-03     63.9231E-03
             676            1225     64.2668E-03     63.9231E-03
             673            1226     53.4981E-03     53.5896E-03
             672            1226     53.4981E-03     53.5896E-03
             677            1226     53.4981E-03     53.5896E-03
             678            1226     53.4981E-03     53.5896E-03
             678            1227     39.2796E-03     39.6020E-03
             673            1227     39.2796E-03     39.6020E-03
             679            1227     39.2796E-03     39.6020E-03
             674            1227     39.2796E-03     39.6020E-03
             679            1228     23.0135E-03     25.2209E-03
             675            1228     23.0135E-03     25.2209E-03
             674            1228     23.0135E-03     25.2209E-03
             680            1228     23.0135E-03     25.2209E-03
             676            1229     78.7507E-03     77.9266E-03
             677            1229     78.7507E-03     77.9266E-03
             681            1229     78.7507E-03     77.9266E-03
             682            1229     78.7507E-03     77.9266E-03
             682            1230     63.7732E-03     64.8290E-03
             677            1230     63.7732E-03     64.8290E-03
             683            1230     63.7732E-03     64.8290E-03
             678            1230     63.7732E-03     64.8290E-03
             683            1231     45.0051E-03     46.8827E-03
             684            1231     45.0051E-03     46.8827E-03
             678            1231     45.0051E-03     46.8827E-03
             679            1231     45.0051E-03     46.8827E-03
             680            1232     22.4448E-03     26.7903E-03
             685            1232     22.4448E-03     26.7903E-03
             679            1232     22.4448E-03     26.7903E-03
             684            1232     22.4448E-03     26.7903E-03
             681            1233     79.3207E-03     79.0425E-03
             687            1233     79.3207E-03     79.0425E-03
             686            1233     79.3207E-03     79.0425E-03
             682            1233     79.3207E-03     79.0425E-03
             682            1234     66.2221E-03     67.5292E-03
             688            1234     66.2221E-03     67.5292E-03
             683            1234     66.2221E-03     67.5292E-03
             687            1234     66.2221E-03     67.5292E-03
             688            1235     48.2479E-03     49.7312E-03
             683            1235     48.2479E-03     49.7312E-03
             684            1235     48.2479E-03     49.7312E-03
             689            1235     48.2479E-03     49.7312E-03
             690            1236     28.2487E-03     29.8630E-03
             684            1236     28.2487E-03     29.8630E-03
             689            1236     28.2487E-03     29.8630E-03
             685            1236     28.2487E-03     29.8630E-03
             686            1237     80.3491E-03     80.0228E-03
             687            1237     80.3491E-03     80.0228E-03
             691            1237     80.3491E-03     80.0228E-03
             692            1237     80.3491E-03     80.0228E-03
             688            1238     70.3073E-03     69.8567E-03
             687            1238     70.3073E-03     69.8567E-03
             692            1238     70.3073E-03     69.8567E-03
             693            1238     70.3073E-03     69.8567E-03
             688            1239     56.1286E-03     53.9490E-03
             693            1239     56.1286E-03     53.9490E-03
             689            1239     56.1286E-03     53.9490E-03
             694            1239     56.1286E-03     53.9490E-03
             689            1240     45.0179E-03     41.6686E-03
             695            1240     45.0179E-03     41.6686E-03
             690            1240     45.0179E-03     41.6686E-03
             694            1240     45.0179E-03     41.6686E-03
             696            1241     81.0791E-03     82.1605E-03
             692            1241     81.0791E-03     82.1605E-03
             697            1241     81.0791E-03     82.1605E-03
             691            1241     81.0791E-03     82.1605E-03
             692            1242     73.2004E-03     75.8504E-03
             697            1242     73.2004E-03     75.8504E-03
             693            1242     73.2004E-03     75.8504E-03
             698            1242     73.2004E-03     75.8504E-03
             694            1243     62.3101E-03     67.8919E-03
             698            1243     62.3101E-03     67.8919E-03
             699            1243     62.3101E-03     67.8919E-03
             693            1243     62.3101E-03     67.8919E-03
             694            1244     57.1628E-03     63.5964E-03
             699            1244     57.1628E-03     63.5964E-03
             695            1244     57.1628E-03     63.5964E-03
             700            1244     57.1628E-03     63.5964E-03
             696            1245     85.0785E-03     83.8568E-03
             697            1245     85.0785E-03     83.8568E-03
             702            1245     85.0785E-03     83.8568E-03
             701            1245     85.0785E-03     83.8568E-03
             698            1246     83.4206E-03     79.2371E-03
             697            1246     83.4206E-03     79.2371E-03
             702            1246     83.4206E-03     79.2371E-03
             703            1246     83.4206E-03     79.2371E-03
             698            1247     81.2708E-03     76.6773E-03
             703            1247     81.2708E-03     76.6773E-03
             704            1247     81.2708E-03     76.6773E-03
             699            1247     81.2708E-03     76.6773E-03
             705            1248     83.2307E-03     79.3006E-03
             699            1248     83.2307E-03     79.3006E-03
             700            1248     83.2307E-03     79.3006E-03
             704            1248     83.2307E-03     79.3006E-03
             702            1249     86.1047E-03     83.8694E-03
             701            1249     86.1047E-03     83.8694E-03
             706            1249     86.1047E-03     83.8694E-03
             707            1249     86.1047E-03     83.8694E-03
             708            1250     86.9794E-03     84.0918E-03
             703            1250     86.9794E-03     84.0918E-03
             707            1250     86.9794E-03     84.0918E-03
             702            1250     86.9794E-03     84.0918E-03
             703            1251     88.6661E-03     87.6089E-03
             708            1251     88.6661E-03     87.6089E-03
             709            1251     88.6661E-03     87.6089E-03
             704            1251     88.6661E-03     87.6089E-03
             704            1252     99.0336E-03     98.9802E-03
             709            1252     99.0336E-03     98.9802E-03
             710            1252     99.0336E-03     98.9802E-03
             705            1252     99.0336E-03     98.9802E-03
             711            1253     82.7877E-03     83.5924E-03
             707            1253     82.7877E-03     83.5924E-03
             712            1253     82.7877E-03     83.5924E-03
             706            1253     82.7877E-03     83.5924E-03
             712            1254     80.3647E-03     87.0307E-03
             707            1254     80.3647E-03     87.0307E-03
             708            1254     80.3647E-03     87.0307E-03
             713            1254     80.3647E-03     87.0307E-03
             714            1255     80.1800E-03     94.9239E-03
             713            1255     80.1800E-03     94.9239E-03
             709            1255     80.1800E-03     94.9239E-03
             708            1255     80.1800E-03     94.9239E-03
             709            1256     85.7692E-03     99.8226E-03
             715            1256     85.7692E-03     99.8226E-03
             710            1256     85.7692E-03     99.8226E-03
             714            1256     85.7692E-03     99.8226E-03
             717            1257     84.5227E-03     84.0192E-03
             716            1257     84.5227E-03     84.0192E-03
             711            1257     84.5227E-03     84.0192E-03
             712            1257     84.5227E-03     84.0192E-03
             712            1258     86.0779E-03     86.1216E-03
             718            1258     86.0779E-03     86.1216E-03
             717            1258     86.0779E-03     86.1216E-03
             713            1258     86.0779E-03     86.1216E-03
             718            1259     90.6164E-03     91.4286E-03
             713            1259     90.6164E-03     91.4286E-03
             719            1259     90.6164E-03     91.4286E-03
             714            1259     90.6164E-03     91.4286E-03
             715            1260     88.1616E-03     87.0132E-03
             720            1260     88.1616E-03     87.0132E-03
             719            1260     88.1616E-03     87.0132E-03
             714            1260     88.1616E-03     87.0132E-03
             717            1261     87.7736E-03     86.3869E-03
             716            1261     87.7736E-03     86.3869E-03
             722            1261     87.7736E-03     86.3869E-03
             721            1261     87.7736E-03     86.3869E-03
             723            1262     93.8314E-03     92.2444E-03
             717            1262     93.8314E-03     92.2444E-03
             722            1262     93.8314E-03     92.2444E-03
             718            1262     93.8314E-03     92.2444E-03
             718            1263     99.8295E-03     97.6465E-03
             724            1263     99.8295E-03     97.6465E-03
             723            1263     99.8295E-03     97.6465E-03
             719            1263     99.8295E-03     97.6465E-03
             720            1264     102.314E-03     98.7488E-03
             725            1264     102.314E-03     98.7488E-03
             724            1264     102.314E-03     98.7488E-03
             719            1264     102.314E-03     98.7488E-03
             721            1265     88.8647E-03     91.3497E-03
             722            1265     88.8647E-03     91.3497E-03
             726            1265     88.8647E-03     91.3497E-03
             727            1265     88.8647E-03     91.3497E-03
             722            1266     96.6936E-03     102.714E-03
             727            1266     96.6936E-03     102.714E-03
             723            1266     96.6936E-03     102.714E-03
             728            1266     96.6936E-03     102.714E-03
             723            1267     102.463E-03     114.004E-03
             724            1267     102.463E-03     114.004E-03
             728            1267     102.463E-03     114.004E-03
             729            1267     102.463E-03     114.004E-03
             725            1268     110.882E-03     122.156E-03
             724            1268     110.882E-03     122.156E-03
             730            1268     110.882E-03     122.156E-03
             729            1268     110.882E-03     122.156E-03
             727            1269     95.3045E-03     93.7185E-03
             726            1269     95.3045E-03     93.7185E-03
             731            1269     95.3045E-03     93.7185E-03
             732            1269     95.3045E-03     93.7185E-03
             732            1270     113.324E-03     105.932E-03
             728            1270     113.324E-03     105.932E-03
             727            1270     113.324E-03     105.932E-03
             733            1270     113.324E-03     105.932E-03
             728            1271     129.635E-03     121.419E-03
             734            1271     129.635E-03     121.419E-03
             733            1271     129.635E-03     121.419E-03
             729            1271     129.635E-03     121.419E-03
             729            1272     143.311E-03     136.959E-03
             735            1272     143.311E-03     136.959E-03
             734            1272     143.311E-03     136.959E-03
             730            1272     143.311E-03     136.959E-03
             732            1273     96.0579E-03     93.0304E-03
             736            1273     96.0579E-03     93.0304E-03
             731            1273     96.0579E-03     93.0304E-03
             737            1273     96.0579E-03     93.0304E-03
             737            1274     116.687E-03     111.777E-03
             732            1274     116.687E-03     111.777E-03
             738            1274     116.687E-03     111.777E-03
             733            1274     116.687E-03     111.777E-03
             734            1275     137.000E-03     134.850E-03
             739            1275     137.000E-03     134.850E-03
             733            1275     137.000E-03     134.850E-03
             738            1275     137.000E-03     134.850E-03
             734            1276     159.967E-03     159.194E-03
             740            1276     159.967E-03     159.194E-03
             735            1276     159.967E-03     159.194E-03
             739            1276     159.967E-03     159.194E-03
             737            1277     90.6425E-03     93.5834E-03
             736            1277     90.6425E-03     93.5834E-03
             741            1277     90.6425E-03     93.5834E-03
             742            1277     90.6425E-03     93.5834E-03
             743            1278     104.841E-03     118.031E-03
             738            1278     104.841E-03     118.031E-03
             737            1278     104.841E-03     118.031E-03
             742            1278     104.841E-03     118.031E-03
             738            1279     122.691E-03     149.228E-03
             743            1279     122.691E-03     149.228E-03
             744            1279     122.691E-03     149.228E-03
             739            1279     122.691E-03     149.228E-03
             739            1280     142.634E-03     167.704E-03
             744            1280     142.634E-03     167.704E-03
             740            1280     142.634E-03     167.704E-03
             745            1280     142.634E-03     167.704E-03
             742            1281     94.9672E-03     93.9286E-03
             746            1281     94.9672E-03     93.9286E-03
             741            1281     94.9672E-03     93.9286E-03
             747            1281     94.9672E-03     93.9286E-03
             742            1282     115.610E-03     115.447E-03
             748            1282     115.610E-03     115.447E-03
             747            1282     115.610E-03     115.447E-03
             743            1282     115.610E-03     115.447E-03
             749            1283     140.960E-03     141.415E-03
             748            1283     140.960E-03     141.415E-03
             744            1283     140.960E-03     141.415E-03
             743            1283     140.960E-03     141.415E-03
             749            1284     152.922E-03     149.106E-03
             744            1284     152.922E-03     149.106E-03
             750            1284     152.922E-03     149.106E-03
             745            1284     152.922E-03     149.106E-03
             752            1285     100.212E-03     98.8152E-03
             747            1285     100.212E-03     98.8152E-03
             746            1285     100.212E-03     98.8152E-03
             751            1285     100.212E-03     98.8152E-03
             748            1286     126.162E-03     124.943E-03
             752            1286     126.162E-03     124.943E-03
             753            1286     126.162E-03     124.943E-03
             747            1286     126.162E-03     124.943E-03
             754            1287     149.583E-03     150.149E-03
             748            1287     149.583E-03     150.149E-03
             753            1287     149.583E-03     150.149E-03
             749            1287     149.583E-03     150.149E-03
             755            1288     162.125E-03     162.888E-03
             749            1288     162.125E-03     162.888E-03
             750            1288     162.125E-03     162.888E-03
             754            1288     162.125E-03     162.888E-03
             751            1289     104.211E-03     103.474E-03
             757            1289     104.211E-03     103.474E-03
             752            1289     104.211E-03     103.474E-03
             756            1289     104.211E-03     103.474E-03
             753            1290     131.285E-03     131.404E-03
             758            1290     131.285E-03     131.404E-03
             752            1290     131.285E-03     131.404E-03
             757            1290     131.285E-03     131.404E-03
             759            1291     154.342E-03     157.257E-03
             754            1291     154.342E-03     157.257E-03
             753            1291     154.342E-03     157.257E-03
             758            1291     154.342E-03     157.257E-03
             754            1292     173.712E-03     176.057E-03
             755            1292     173.712E-03     176.057E-03
             760            1292     173.712E-03     176.057E-03
             759            1292     173.712E-03     176.057E-03
             756            1293     105.742E-03     109.041E-03
             762            1293     105.742E-03     109.041E-03
             757            1293     105.742E-03     109.041E-03
             761            1293     105.742E-03     109.041E-03
             758            1294     136.965E-03     142.398E-03
             762            1294     136.965E-03     142.398E-03
             763            1294     136.965E-03     142.398E-03
             757            1294     136.965E-03     142.398E-03
             758            1295     162.601E-03     175.117E-03
             759            1295     162.601E-03     175.117E-03
             763            1295     162.601E-03     175.117E-03
             764            1295     162.601E-03     175.117E-03
             760            1296     186.375E-03     198.920E-03
             764            1296     186.375E-03     198.920E-03
             765            1296     186.375E-03     198.920E-03
             759            1296     186.375E-03     198.920E-03
             766            1297     114.347E-03     111.766E-03
             762            1297     114.347E-03     111.766E-03
             767            1297     114.347E-03     111.766E-03
             761            1297     114.347E-03     111.766E-03
             768            1298     158.104E-03     147.693E-03
             763            1298     158.104E-03     147.693E-03
             767            1298     158.104E-03     147.693E-03
             762            1298     158.104E-03     147.693E-03
             769            1299     194.676E-03     186.091E-03
             768            1299     194.676E-03     186.091E-03
             763            1299     194.676E-03     186.091E-03
             764            1299     194.676E-03     186.091E-03
             769            1300     221.329E-03     215.557E-03
             765            1300     221.329E-03     215.557E-03
             764            1300     221.329E-03     215.557E-03
             770            1300     221.329E-03     215.557E-03
             767            1301     113.862E-03     109.490E-03
             772            1301     113.862E-03     109.490E-03
             771            1301     113.862E-03     109.490E-03
             766            1301     113.862E-03     109.490E-03
             772            1302     160.241E-03     153.260E-03
             767            1302     160.241E-03     153.260E-03
             768            1302     160.241E-03     153.260E-03
             773            1302     160.241E-03     153.260E-03
             769            1303     202.995E-03     199.677E-03
             773            1303     202.995E-03     199.677E-03
             768            1303     202.995E-03     199.677E-03
             774            1303     202.995E-03     199.677E-03
             770            1304     239.908E-03     237.309E-03
             775            1304     239.908E-03     237.309E-03
             774            1304     239.908E-03     237.309E-03
             769            1304     239.908E-03     237.309E-03
             772            1305     104.241E-03     110.392E-03
             777            1305     104.241E-03     110.392E-03
             771            1305     104.241E-03     110.392E-03
             776            1305     104.241E-03     110.392E-03
             772            1306     140.038E-03     161.972E-03
             778            1306     140.038E-03     161.972E-03
             773            1306     140.038E-03     161.972E-03
             777            1306     140.038E-03     161.972E-03
             779            1307     178.144E-03     219.204E-03
             774            1307     178.144E-03     219.204E-03
             773            1307     178.144E-03     219.204E-03
             778            1307     178.144E-03     219.204E-03
             780            1308     213.204E-03     251.105E-03
             779            1308     213.204E-03     251.105E-03
             774            1308     213.204E-03     251.105E-03
             775            1308     213.204E-03     251.105E-03
             776            1309     111.837E-03     110.067E-03
             781            1309     111.837E-03     110.067E-03
             782            1309     111.837E-03     110.067E-03
             777            1309     111.837E-03     110.067E-03
             783            1310     157.019E-03     155.417E-03
             782            1310     157.019E-03     155.417E-03
             778            1310     157.019E-03     155.417E-03
             777            1310     157.019E-03     155.417E-03
             783            1311     203.719E-03     203.410E-03
             779            1311     203.719E-03     203.410E-03
             778            1311     203.719E-03     203.410E-03
             784            1311     203.719E-03     203.410E-03
             780            1312     229.038E-03     223.914E-03
             779            1312     229.038E-03     223.914E-03
             785            1312     229.038E-03     223.914E-03
             784            1312     229.038E-03     223.914E-03
             786            1313     119.402E-03     116.726E-03
             782            1313     119.402E-03     116.726E-03
             787            1313     119.402E-03     116.726E-03
             781            1313     119.402E-03     116.726E-03
             788            1314     170.237E-03     166.307E-03
             783            1314     170.237E-03     166.307E-03
             782            1314     170.237E-03     166.307E-03
             787            1314     170.237E-03     166.307E-03
             783            1315     212.719E-03     211.369E-03
             789            1315     212.719E-03     211.369E-03
             784            1315     212.719E-03     211.369E-03
             788            1315     212.719E-03     211.369E-03
             790            1316     236.472E-03     236.196E-03
             789            1316     236.472E-03     236.196E-03
             785            1316     236.472E-03     236.196E-03
             784            1316     236.472E-03     236.196E-03
             792            1317     123.233E-03     122.812E-03
             786            1317     123.233E-03     122.812E-03
             791            1317     123.233E-03     122.812E-03
             787            1317     123.233E-03     122.812E-03
             788            1318     172.420E-03     173.534E-03
             787            1318     172.420E-03     173.534E-03
             792            1318     172.420E-03     173.534E-03
             793            1318     172.420E-03     173.534E-03
             788            1319     211.914E-03     218.025E-03
             794            1319     211.914E-03     218.025E-03
             793            1319     211.914E-03     218.025E-03
             789            1319     211.914E-03     218.025E-03
             789            1320     243.250E-03     248.696E-03
             794            1320     243.250E-03     248.696E-03
             795            1320     243.250E-03     248.696E-03
             790            1320     243.250E-03     248.696E-03
             791            1321     124.732E-03     129.128E-03
             797            1321     124.732E-03     129.128E-03
             796            1321     124.732E-03     129.128E-03
             792            1321     124.732E-03     129.128E-03
             792            1322     178.389E-03     184.944E-03
             797            1322     178.389E-03     184.944E-03
             793            1322     178.389E-03     184.944E-03
             798            1322     178.389E-03     184.944E-03
             798            1323     220.204E-03     235.890E-03
             799            1323     220.204E-03     235.890E-03
             794            1323     220.204E-03     235.890E-03
             793            1323     220.204E-03     235.890E-03
             799            1324     255.756E-03     271.270E-03
             795            1324     255.756E-03     271.270E-03
             794            1324     255.756E-03     271.270E-03
             800            1324     255.756E-03     271.270E-03
             796            1325     134.844E-03     131.537E-03
             801            1325     134.844E-03     131.537E-03
             797            1325     134.844E-03     131.537E-03
             802            1325     134.844E-03     131.537E-03
             798            1326     203.423E-03     190.176E-03
             797            1326     203.423E-03     190.176E-03
             802            1326     203.423E-03     190.176E-03
             803            1326     203.423E-03     190.176E-03
             804            1327     257.815E-03     247.394E-03
             799            1327     257.815E-03     247.394E-03
             803            1327     257.815E-03     247.394E-03
             798            1327     257.815E-03     247.394E-03
             805            1328     294.959E-03     288.232E-03
             804            1328     294.959E-03     288.232E-03
             799            1328     294.959E-03     288.232E-03
             800            1328     294.959E-03     288.232E-03
             802            1329     132.808E-03     127.419E-03
             801            1329     132.808E-03     127.419E-03
             806            1329     132.808E-03     127.419E-03
             807            1329     132.808E-03     127.419E-03
             802            1330     203.669E-03     195.022E-03
             803            1330     203.669E-03     195.022E-03
             808            1330     203.669E-03     195.022E-03
             807            1330     203.669E-03     195.022E-03
             809            1331     265.957E-03     261.826E-03
             808            1331     265.957E-03     261.826E-03
             803            1331     265.957E-03     261.826E-03
             804            1331     265.957E-03     261.826E-03
             804            1332     314.985E-03     311.085E-03
             810            1332     314.985E-03     311.085E-03
             809            1332     314.985E-03     311.085E-03
             805            1332     314.985E-03     311.085E-03
             811            1333     119.813E-03     129.664E-03
             812            1333     119.813E-03     129.664E-03
             806            1333     119.813E-03     129.664E-03
             807            1333     119.813E-03     129.664E-03
             812            1334     176.318E-03     206.692E-03
             813            1334     176.318E-03     206.692E-03
             807            1334     176.318E-03     206.692E-03
             808            1334     176.318E-03     206.692E-03
             808            1335     231.342E-03     285.902E-03
             809            1335     231.342E-03     285.902E-03
             813            1335     231.342E-03     285.902E-03
             814            1335     231.342E-03     285.902E-03
             815            1336     280.589E-03     330.009E-03
             809            1336     280.589E-03     330.009E-03
             810            1336     280.589E-03     330.009E-03
             814            1336     280.589E-03     330.009E-03
             817            1337     132.356E-03     130.273E-03
             812            1337     132.356E-03     130.273E-03
             816            1337     132.356E-03     130.273E-03
             811            1337     132.356E-03     130.273E-03
             817            1338     202.045E-03     197.697E-03
             818            1338     202.045E-03     197.697E-03
             812            1338     202.045E-03     197.697E-03
             813            1338     202.045E-03     197.697E-03
             814            1339     266.757E-03     265.481E-03
             819            1339     266.757E-03     265.481E-03
             818            1339     266.757E-03     265.481E-03
             813            1339     266.757E-03     265.481E-03
             819            1340     302.506E-03     299.129E-03
             815            1340     302.506E-03     299.129E-03
             814            1340     302.506E-03     299.129E-03
             820            1340     302.506E-03     299.129E-03
             821            1341     141.879E-03     136.418E-03
             817            1341     141.879E-03     136.418E-03
             822            1341     141.879E-03     136.418E-03
             816            1341     141.879E-03     136.418E-03
             817            1342     217.650E-03     205.965E-03
             818            1342     217.650E-03     205.965E-03
             822            1342     217.650E-03     205.965E-03
             823            1342     217.650E-03     205.965E-03
             819            1343     279.006E-03     266.227E-03
             823            1343     279.006E-03     266.227E-03
             824            1343     279.006E-03     266.227E-03
             818            1343     279.006E-03     266.227E-03
             819            1344     314.759E-03     302.251E-03
             824            1344     314.759E-03     302.251E-03
             820            1344     314.759E-03     302.251E-03
             825            1344     314.759E-03     302.251E-03
             821            1345     138.980E-03     148.635E-03
             822            1345     138.980E-03     148.635E-03
             826            1345     138.980E-03     148.635E-03
             827            1345     138.980E-03     148.635E-03
             823            1346     208.218E-03     226.742E-03
             828            1346     208.218E-03     226.742E-03
             827            1346     208.218E-03     226.742E-03
             822            1346     208.218E-03     226.742E-03
             823            1347     258.761E-03     292.595E-03
             829            1347     258.761E-03     292.595E-03
             828            1347     258.761E-03     292.595E-03
             824            1347     258.761E-03     292.595E-03
             824            1348     301.211E-03     333.663E-03
             830            1348     301.211E-03     333.663E-03
             825            1348     301.211E-03     333.663E-03
             829            1348     301.211E-03     333.663E-03
             826            1349     152.013E-03     148.003E-03
             832            1349     152.013E-03     148.003E-03
             831            1349     152.013E-03     148.003E-03
             827            1349     152.013E-03     148.003E-03
             827            1350     240.471E-03     222.747E-03
             832            1350     240.471E-03     222.747E-03
             833            1350     240.471E-03     222.747E-03
             828            1350     240.471E-03     222.747E-03
             829            1351     309.365E-03     290.651E-03
             828            1351     309.365E-03     290.651E-03
             833            1351     309.365E-03     290.651E-03
             834            1351     309.365E-03     290.651E-03
             829            1352     354.376E-03     339.256E-03
             834            1352     354.376E-03     339.256E-03
             835            1352     354.376E-03     339.256E-03
             830            1352     354.376E-03     339.256E-03
             831            1353     148.976E-03     143.161E-03
             832            1353     148.976E-03     143.161E-03
             837            1353     148.976E-03     143.161E-03
             836            1353     148.976E-03     143.161E-03
             837            1354     238.774E-03     228.596E-03
             838            1354     238.774E-03     228.596E-03
             833            1354     238.774E-03     228.596E-03
             832            1354     238.774E-03     228.596E-03
             838            1355     314.702E-03     310.163E-03
             839            1355     314.702E-03     310.163E-03
             834            1355     314.702E-03     310.163E-03
             833            1355     314.702E-03     310.163E-03
             840            1356     371.960E-03     369.072E-03
             835            1356     371.960E-03     369.072E-03
             839            1356     371.960E-03     369.072E-03
             834            1356     371.960E-03     369.072E-03
            1618            2006     532.110E-06     533.292E-06
            1623            2006     532.110E-06     533.292E-06
            1624            2006     532.110E-06     533.292E-06
            1619            2006     532.110E-06     533.292E-06
            1620            2007     462.781E-06     459.052E-06
            1619            2007     462.781E-06     459.052E-06
            1624            2007     462.781E-06     459.052E-06
            1625            2007     462.781E-06     459.052E-06
            1621            2008     484.048E-06     469.183E-06
            1625            2008     484.048E-06     469.183E-06
            1626            2008     484.048E-06     469.183E-06
            1620            2008     484.048E-06     469.183E-06
            1626            2009     509.363E-06     494.572E-06
            1621            2009     509.363E-06     494.572E-06
            1627            2009     509.363E-06     494.572E-06
            1622            2009     509.363E-06     494.572E-06
            1623            2010     416.654E-06     396.765E-06
            1628            2010     416.654E-06     396.765E-06
            1629            2010     416.654E-06     396.765E-06
            1624            2010     416.654E-06     396.765E-06
            1624            2011     414.811E-06     386.320E-06
            1630            2011     414.811E-06     386.320E-06
            1625            2011     414.811E-06     386.320E-06
            1629            2011     414.811E-06     386.320E-06
            1630            2012     463.633E-06     440.759E-06
            1631            2012     463.633E-06     440.759E-06
            1625            2012     463.633E-06     440.759E-06
            1626            2012     463.633E-06     440.759E-06
            1631            2013     503.881E-06     495.136E-06
            1632            2013     503.881E-06     495.136E-06
            1627            2013     503.881E-06     495.136E-06
            1626            2013     503.881E-06     495.136E-06
            1628            2014     251.614E-06     274.857E-06
            1633            2014     251.614E-06     274.857E-06
            1634            2014     251.614E-06     274.857E-06
            1629            2014     251.614E-06     274.857E-06
            1629            2015     304.516E-06     324.682E-06
            1635            2015     304.516E-06     324.682E-06
            1630            2015     304.516E-06     324.682E-06
            1634            2015     304.516E-06     324.682E-06
            1635            2016     410.353E-06     422.654E-06
            1636            2016     410.353E-06     422.654E-06
            1630            2016     410.353E-06     422.654E-06
            1631            2016     410.353E-06     422.654E-06
            1636            2017     483.536E-06     486.052E-06
            1637            2017     483.536E-06     486.052E-06
            1632            2017     483.536E-06     486.052E-06
            1631            2017     483.536E-06     486.052E-06
            1634            2018     182.515E-06     160.509E-06
            1638            2018     182.515E-06     160.509E-06
            1633            2018     182.515E-06     160.509E-06
            1639            2018     182.515E-06     160.509E-06
            1640            2019     268.664E-06     259.272E-06
            1634            2019     268.664E-06     259.272E-06
            1635            2019     268.664E-06     259.272E-06
            1639            2019     268.664E-06     259.272E-06
            1635            2020     397.522E-06     396.205E-06
            1640            2020     397.522E-06     396.205E-06
            1636            2020     397.522E-06     396.205E-06
            1641            2020     397.522E-06     396.205E-06
            1642            2021     484.885E-06     477.690E-06
            1636            2021     484.885E-06     477.690E-06
            1637            2021     484.885E-06     477.690E-06
            1641            2021     484.885E-06     477.690E-06
            1643            2022     143.898E-06     179.083E-06
            1639            2022     143.898E-06     179.083E-06
            1644            2022     143.898E-06     179.083E-06
            1638            2022     143.898E-06     179.083E-06
            1639            2023     242.616E-06     255.634E-06
            1645            2023     242.616E-06     255.634E-06
            1640            2023     242.616E-06     255.634E-06
            1644            2023     242.616E-06     255.634E-06
            1640            2024     383.876E-06     384.769E-06
            1641            2024     383.876E-06     384.769E-06
            1645            2024     383.876E-06     384.769E-06
            1646            2024     383.876E-06     384.769E-06
            1641            2025     481.279E-06     472.828E-06
            1647            2025     481.279E-06     472.828E-06
            1646            2025     481.279E-06     472.828E-06
            1642            2025     481.279E-06     472.828E-06
            1654            2026     325.070E-03     341.984E-03
            1648            2026     325.070E-03     341.984E-03
            1653            2026     325.070E-03     341.984E-03
            1649            2026     325.070E-03     341.984E-03
            1650            2027     274.153E-03     292.428E-03
            1654            2027     274.153E-03     292.428E-03
            1649            2027     274.153E-03     292.428E-03
            1655            2027     274.153E-03     292.428E-03
            1655            2028     203.813E-03     213.257E-03
            1651            2028     203.813E-03     213.257E-03
            1656            2028     203.813E-03     213.257E-03
            1650            2028     203.813E-03     213.257E-03
            1652            2029     135.372E-03     138.724E-03
            1657            2029     135.372E-03     138.724E-03
            1651            2029     135.372E-03     138.724E-03
            1656            2029     135.372E-03     138.724E-03
            1653            2030     352.284E-03     363.310E-03
            1654            2030     352.284E-03     363.310E-03
            1659            2030     352.284E-03     363.310E-03
            1658            2030     352.284E-03     363.310E-03
            1659            2031     303.827E-03     317.367E-03
            1660            2031     303.827E-03     317.367E-03
            1654            2031     303.827E-03     317.367E-03
            1655            2031     303.827E-03     317.367E-03
            1655            2032     229.975E-03     236.497E-03
            1656            2032     229.975E-03     236.497E-03
            1661            2032     229.975E-03     236.497E-03
            1660            2032     229.975E-03     236.497E-03
            1661            2033     154.470E-03     161.372E-03
            1656            2033     154.470E-03     161.372E-03
            1662            2033     154.470E-03     161.372E-03
            1657            2033     154.470E-03     161.372E-03
            1663            2034     397.077E-03     371.151E-03
            1658            2034     397.077E-03     371.151E-03
            1659            2034     397.077E-03     371.151E-03
            1664            2034     397.077E-03     371.151E-03
            1659            2035     351.735E-03     324.316E-03
            1660            2035     351.735E-03     324.316E-03
            1664            2035     351.735E-03     324.316E-03
            1665            2035     351.735E-03     324.316E-03
            1660            2036     270.607E-03     249.252E-03
            1661            2036     270.607E-03     249.252E-03
            1666            2036     270.607E-03     249.252E-03
            1665            2036     270.607E-03     249.252E-03
            1662            2037     173.977E-03     169.639E-03
            1661            2037     173.977E-03     169.639E-03
            1666            2037     173.977E-03     169.639E-03
            1667            2037     173.977E-03     169.639E-03
            1668            2038     396.823E-03     404.397E-03
            1664            2038     396.823E-03     404.397E-03
            1669            2038     396.823E-03     404.397E-03
            1663            2038     396.823E-03     404.397E-03
            1669            2039     337.744E-03     343.225E-03
            1670            2039     337.744E-03     343.225E-03
            1664            2039     337.744E-03     343.225E-03
            1665            2039     337.744E-03     343.225E-03
            1666            2040     261.170E-03     259.226E-03
            1670            2040     261.170E-03     259.226E-03
            1665            2040     261.170E-03     259.226E-03
            1671            2040     261.170E-03     259.226E-03
            1667            2041     173.536E-03     171.966E-03
            1666            2041     173.536E-03     171.966E-03
            1671            2041     173.536E-03     171.966E-03
            1672            2041     173.536E-03     171.966E-03
            1833            2162     216.844E-03     217.065E-03
            1838            2162     216.844E-03     217.065E-03
            1834            2162     216.844E-03     217.065E-03
            1839            2162     216.844E-03     217.065E-03
            1839            2163     265.605E-03     268.428E-03
            1834            2163     265.605E-03     268.428E-03
            1840            2163     265.605E-03     268.428E-03
            1835            2163     265.605E-03     268.428E-03
            1840            2164     317.624E-03     322.713E-03
            1835            2164     317.624E-03     322.713E-03
            1836            2164     317.624E-03     322.713E-03
            1841            2164     317.624E-03     322.713E-03
            1841            2165     352.928E-03     359.462E-03
            1842            2165     352.928E-03     359.462E-03
            1837            2165     352.928E-03     359.462E-03
            1836            2165     352.928E-03     359.462E-03
            1843            2166     224.831E-03     224.571E-03
            1839            2166     224.831E-03     224.571E-03
            1844            2166     224.831E-03     224.571E-03
            1838            2166     224.831E-03     224.571E-03
            1840            2167     258.693E-03     266.269E-03
            1845            2167     258.693E-03     266.269E-03
            1844            2167     258.693E-03     266.269E-03
            1839            2167     258.693E-03     266.269E-03
            1841            2168     294.510E-03     314.583E-03
            1845            2168     294.510E-03     314.583E-03
            1840            2168     294.510E-03     314.583E-03
            1846            2168     294.510E-03     314.583E-03
            1846            2169     327.984E-03     351.777E-03
            1847            2169     327.984E-03     351.777E-03
            1842            2169     327.984E-03     351.777E-03
            1841            2169     327.984E-03     351.777E-03
            1849            2170     215.975E-03     210.305E-03
            1848            2170     215.975E-03     210.305E-03
            1844            2170     215.975E-03     210.305E-03
            1843            2170     215.975E-03     210.305E-03
            1850            2171     257.261E-03     248.670E-03
            1849            2171     257.261E-03     248.670E-03
            1844            2171     257.261E-03     248.670E-03
            1845            2171     257.261E-03     248.670E-03
            1850            2172     296.597E-03     290.188E-03
            1845            2172     296.597E-03     290.188E-03
            1846            2172     296.597E-03     290.188E-03
            1851            2172     296.597E-03     290.188E-03
            1851            2173     331.154E-03     329.647E-03
            1852            2173     331.154E-03     329.647E-03
            1846            2173     331.154E-03     329.647E-03
            1847            2173     331.154E-03     329.647E-03
            1849            2174     212.718E-03     210.256E-03
            1853            2174     212.718E-03     210.256E-03
            1854            2174     212.718E-03     210.256E-03
            1848            2174     212.718E-03     210.256E-03
            1849            2175     248.570E-03     236.406E-03
            1855            2175     248.570E-03     236.406E-03
            1854            2175     248.570E-03     236.406E-03
            1850            2175     248.570E-03     236.406E-03
            1851            2176     287.298E-03     269.435E-03
            1850            2176     287.298E-03     269.435E-03
            1856            2176     287.298E-03     269.435E-03
            1855            2176     287.298E-03     269.435E-03
            1851            2177     301.587E-03     277.610E-03
            1856            2177     301.587E-03     277.610E-03
            1857            2177     301.587E-03     277.610E-03
            1852            2177     301.587E-03     277.610E-03
            1858            2178     29.1326E-03     30.8435E-03
            1863            2178     29.1326E-03     30.8435E-03
            1859            2178     29.1326E-03     30.8435E-03
            1864            2178     29.1326E-03     30.8435E-03
            1860            2179     44.7047E-03     45.0695E-03
            1864            2179     44.7047E-03     45.0695E-03
            1859            2179     44.7047E-03     45.0695E-03
            1865            2179     44.7047E-03     45.0695E-03
            1865            2180     57.4533E-03     57.5493E-03
            1866            2180     57.4533E-03     57.5493E-03
            1860            2180     57.4533E-03     57.5493E-03
            1861            2180     57.4533E-03     57.5493E-03
            1867            2181     66.3726E-03     66.0021E-03
            1866            2181     66.3726E-03     66.0021E-03
            1862            2181     66.3726E-03     66.0021E-03
            1861            2181     66.3726E-03     66.0021E-03
            1868            2182     28.7327E-03     31.4595E-03
            1869            2182     28.7327E-03     31.4595E-03
            1863            2182     28.7327E-03     31.4595E-03
            1864            2182     28.7327E-03     31.4595E-03
            1870            2183     51.2177E-03     52.8323E-03
            1864            2183     51.2177E-03     52.8323E-03
            1869            2183     51.2177E-03     52.8323E-03
            1865            2183     51.2177E-03     52.8323E-03
            1865            2184     68.3048E-03     69.2037E-03
            1870            2184     68.3048E-03     69.2037E-03
            1866            2184     68.3048E-03     69.2037E-03
            1871            2184     68.3048E-03     69.2037E-03
            1867            2185     81.1912E-03     80.2663E-03
            1871            2185     81.1912E-03     80.2663E-03
            1872            2185     81.1912E-03     80.2663E-03
            1866            2185     81.1912E-03     80.2663E-03
            1869            2186     31.7968E-03     32.0418E-03
            1874            2186     31.7968E-03     32.0418E-03
            1868            2186     31.7968E-03     32.0418E-03
            1873            2186     31.7968E-03     32.0418E-03
            1870            2187     53.4735E-03     54.7834E-03
            1875            2187     53.4735E-03     54.7834E-03
            1874            2187     53.4735E-03     54.7834E-03
            1869            2187     53.4735E-03     54.7834E-03
            1876            2188     70.3418E-03     71.6002E-03
            1870            2188     70.3418E-03     71.6002E-03
            1871            2188     70.3418E-03     71.6002E-03
            1875            2188     70.3418E-03     71.6002E-03
            1877            2189     81.5767E-03     81.2820E-03
            1871            2189     81.5767E-03     81.2820E-03
            1876            2189     81.5767E-03     81.2820E-03
            1872            2189     81.5767E-03     81.2820E-03
            1874            2190     45.5107E-03     42.1306E-03
            1873            2190     45.5107E-03     42.1306E-03
            1879            2190     45.5107E-03     42.1306E-03
            1878            2190     45.5107E-03     42.1306E-03
            1879            2191     59.6699E-03     57.6643E-03
            1875            2191     59.6699E-03     57.6643E-03
            1880            2191     59.6699E-03     57.6643E-03
            1874            2191     59.6699E-03     57.6643E-03
            1881            2192     73.6353E-03     73.3480E-03
            1880            2192     73.6353E-03     73.3480E-03
            1875            2192     73.6353E-03     73.3480E-03
            1876            2192     73.6353E-03     73.3480E-03
            1882            2193     82.2312E-03     81.9951E-03
            1877            2193     82.2312E-03     81.9951E-03
            1876            2193     82.2312E-03     81.9951E-03
            1881            2193     82.2312E-03     81.9951E-03
            1883            2194     56.6359E-03     62.6220E-03
            1879            2194     56.6359E-03     62.6220E-03
            1884            2194     56.6359E-03     62.6220E-03
            1878            2194     56.6359E-03     62.6220E-03
            1879            2195     64.6723E-03     69.4849E-03
            1880            2195     64.6723E-03     69.4849E-03
            1884            2195     64.6723E-03     69.4849E-03
            1885            2195     64.6723E-03     69.4849E-03
            1886            2196     75.8583E-03     78.0025E-03
            1885            2196     75.8583E-03     78.0025E-03
            1880            2196     75.8583E-03     78.0025E-03
            1881            2196     75.8583E-03     78.0025E-03
            1887            2197     82.6277E-03     83.4706E-03
            1882            2197     82.6277E-03     83.4706E-03
            1881            2197     82.6277E-03     83.4706E-03
            1886            2197     82.6277E-03     83.4706E-03
            1884            2198     81.3014E-03     77.4365E-03
            1883            2198     81.3014E-03     77.4365E-03
            1888            2198     81.3014E-03     77.4365E-03
            1889            2198     81.3014E-03     77.4365E-03
            1890            2199     81.4620E-03     77.2513E-03
            1889            2199     81.4620E-03     77.2513E-03
            1884            2199     81.4620E-03     77.2513E-03
            1885            2199     81.4620E-03     77.2513E-03
            1891            2200     84.3353E-03     80.6860E-03
            1885            2200     84.3353E-03     80.6860E-03
            1886            2200     84.3353E-03     80.6860E-03
            1890            2200     84.3353E-03     80.6860E-03
            1887            2201     85.7291E-03     84.8171E-03
            1886            2201     85.7291E-03     84.8171E-03
            1891            2201     85.7291E-03     84.8171E-03
            1892            2201     85.7291E-03     84.8171E-03
            1889            2202     96.1750E-03     96.3690E-03
            1893            2202     96.1750E-03     96.3690E-03
            1888            2202     96.1750E-03     96.3690E-03
            1894            2202     96.1750E-03     96.3690E-03
            1889            2203     87.9297E-03     86.7939E-03
            1894            2203     87.9297E-03     86.7939E-03
            1895            2203     87.9297E-03     86.7939E-03
            1890            2203     87.9297E-03     86.7939E-03
            1890            2204     87.2333E-03     84.1553E-03
            1896            2204     87.2333E-03     84.1553E-03
            1891            2204     87.2333E-03     84.1553E-03
            1895            2204     87.2333E-03     84.1553E-03
            1897            2205     86.4752E-03     84.1070E-03
            1896            2205     86.4752E-03     84.1070E-03
            1892            2205     86.4752E-03     84.1070E-03
            1891            2205     86.4752E-03     84.1070E-03
            1899            2206     84.5904E-03     97.7725E-03
            1894            2206     84.5904E-03     97.7725E-03
            1893            2206     84.5904E-03     97.7725E-03
            1898            2206     84.5904E-03     97.7725E-03
            1900            2207     80.4412E-03     93.8456E-03
            1894            2207     80.4412E-03     93.8456E-03
            1899            2207     80.4412E-03     93.8456E-03
            1895            2207     80.4412E-03     93.8456E-03
            1896            2208     81.2850E-03     86.8255E-03
            1895            2208     81.2850E-03     86.8255E-03
            1901            2208     81.2850E-03     86.8255E-03
            1900            2208     81.2850E-03     86.8255E-03
            1901            2209     83.6324E-03     83.8161E-03
            1896            2209     83.6324E-03     83.8161E-03
            1897            2209     83.6324E-03     83.8161E-03
            1902            2209     83.6324E-03     83.8161E-03
            1904            2210     86.7929E-03     85.4913E-03
            1903            2210     86.7929E-03     85.4913E-03
            1898            2210     86.7929E-03     85.4913E-03
            1899            2210     86.7929E-03     85.4913E-03
            1904            2211     89.8167E-03     91.1514E-03
            1900            2211     89.8167E-03     91.1514E-03
            1899            2211     89.8167E-03     91.1514E-03
            1905            2211     89.8167E-03     91.1514E-03
            1906            2212     85.9184E-03     86.5422E-03
            1900            2212     85.9184E-03     86.5422E-03
            1905            2212     85.9184E-03     86.5422E-03
            1901            2212     85.9184E-03     86.5422E-03
            1902            2213     84.8264E-03     84.5437E-03
            1901            2213     84.8264E-03     84.5437E-03
            1906            2213     84.8264E-03     84.5437E-03
            1907            2213     84.8264E-03     84.5437E-03
            1903            2214     98.9510E-03     95.5363E-03
            1904            2214     98.9510E-03     95.5363E-03
            1908            2214     98.9510E-03     95.5363E-03
            1909            2214     98.9510E-03     95.5363E-03
            1904            2215     97.7164E-03     95.9338E-03
            1909            2215     97.7164E-03     95.9338E-03
            1910            2215     97.7164E-03     95.9338E-03
            1905            2215     97.7164E-03     95.9338E-03
            1910            2216     92.5801E-03     91.3288E-03
            1911            2216     92.5801E-03     91.3288E-03
            1906            2216     92.5801E-03     91.3288E-03
            1905            2216     92.5801E-03     91.3288E-03
            1912            2217     87.3056E-03     85.9940E-03
            1906            2217     87.3056E-03     85.9940E-03
            1907            2217     87.3056E-03     85.9940E-03
            1911            2217     87.3056E-03     85.9940E-03
            1914            2218     106.789E-03     117.345E-03
            1913            2218     106.789E-03     117.345E-03
            1909            2218     106.789E-03     117.345E-03
            1908            2218     106.789E-03     117.345E-03
            1915            2219     99.8005E-03     110.345E-03
            1910            2219     99.8005E-03     110.345E-03
            1914            2219     99.8005E-03     110.345E-03
            1909            2219     99.8005E-03     110.345E-03
            1916            2220     94.8840E-03     100.078E-03
            1910            2220     94.8840E-03     100.078E-03
            1915            2220     94.8840E-03     100.078E-03
            1911            2220     94.8840E-03     100.078E-03
            1911            2221     87.8688E-03     89.7556E-03
            1917            2221     87.8688E-03     89.7556E-03
            1916            2221     87.8688E-03     89.7556E-03
            1912            2221     87.8688E-03     89.7556E-03
            1914            2222     137.496E-03     131.444E-03
            1919            2222     137.496E-03     131.444E-03
            1918            2222     137.496E-03     131.444E-03
            1913            2222     137.496E-03     131.444E-03
            1920            2223     124.691E-03     117.055E-03
            1915            2223     124.691E-03     117.055E-03
            1914            2223     124.691E-03     117.055E-03
            1919            2223     124.691E-03     117.055E-03
            1920            2224     109.300E-03     102.690E-03
            1916            2224     109.300E-03     102.690E-03
            1915            2224     109.300E-03     102.690E-03
            1921            2224     109.300E-03     102.690E-03
            1916            2225     92.7743E-03     91.7260E-03
            1921            2225     92.7743E-03     91.7260E-03
            1922            2225     92.7743E-03     91.7260E-03
            1917            2225     92.7743E-03     91.7260E-03
            1919            2226     153.195E-03     152.800E-03
            1923            2226     153.195E-03     152.800E-03
            1924            2226     153.195E-03     152.800E-03
            1918            2226     153.195E-03     152.800E-03
            1919            2227     131.464E-03     129.229E-03
            1920            2227     131.464E-03     129.229E-03
            1925            2227     131.464E-03     129.229E-03
            1924            2227     131.464E-03     129.229E-03
            1920            2228     112.306E-03     107.158E-03
            1921            2228     112.306E-03     107.158E-03
            1926            2228     112.306E-03     107.158E-03
            1925            2228     112.306E-03     107.158E-03
            1921            2229     93.3400E-03     90.1929E-03
            1922            2229     93.3400E-03     90.1929E-03
            1927            2229     93.3400E-03     90.1929E-03
            1926            2229     93.3400E-03     90.1929E-03
            1924            2230     137.813E-03     161.684E-03
            1928            2230     137.813E-03     161.684E-03
            1923            2230     137.813E-03     161.684E-03
            1929            2230     137.813E-03     161.684E-03
            1929            2231     118.535E-03     143.367E-03
            1924            2231     118.535E-03     143.367E-03
            1930            2231     118.535E-03     143.367E-03
            1925            2231     118.535E-03     143.367E-03
            1931            2232     101.643E-03     113.099E-03
            1925            2232     101.643E-03     113.099E-03
            1926            2232     101.643E-03     113.099E-03
            1930            2232     101.643E-03     113.099E-03
            1932            2233     88.9406E-03     90.6955E-03
            1927            2233     88.9406E-03     90.6955E-03
            1931            2233     88.9406E-03     90.6955E-03
            1926            2233     88.9406E-03     90.6955E-03
            1929            2234     147.886E-03     144.053E-03
            1934            2234     147.886E-03     144.053E-03
            1933            2234     147.886E-03     144.053E-03
            1928            2234     147.886E-03     144.053E-03
            1930            2235     135.361E-03     136.565E-03
            1935            2235     135.361E-03     136.565E-03
            1929            2235     135.361E-03     136.565E-03
            1934            2235     135.361E-03     136.565E-03
            1936            2236     110.502E-03     111.290E-03
            1935            2236     110.502E-03     111.290E-03
            1930            2236     110.502E-03     111.290E-03
            1931            2236     110.502E-03     111.290E-03
            1937            2237     92.0799E-03     91.5288E-03
            1936            2237     92.0799E-03     91.5288E-03
            1932            2237     92.0799E-03     91.5288E-03
            1931            2237     92.0799E-03     91.5288E-03
            1939            2238     155.368E-03     156.132E-03
            1938            2238     155.368E-03     156.132E-03
            1933            2238     155.368E-03     156.132E-03
            1934            2238     155.368E-03     156.132E-03
            1935            2239     142.622E-03     143.578E-03
            1934            2239     142.622E-03     143.578E-03
            1940            2239     142.622E-03     143.578E-03
            1939            2239     142.622E-03     143.578E-03
            1936            2240     119.661E-03     118.911E-03
            1940            2240     119.661E-03     118.911E-03
            1941            2240     119.661E-03     118.911E-03
            1935            2240     119.661E-03     118.911E-03
            1942            2241     96.1108E-03     94.7908E-03
            1937            2241     96.1108E-03     94.7908E-03
            1936            2241     96.1108E-03     94.7908E-03
            1941            2241     96.1108E-03     94.7908E-03
            1938            2242     166.002E-03     168.173E-03
            1943            2242     166.002E-03     168.173E-03
            1944            2242     166.002E-03     168.173E-03
            1939            2242     166.002E-03     168.173E-03
            1945            2243     146.791E-03     149.511E-03
            1940            2243     146.791E-03     149.511E-03
            1944            2243     146.791E-03     149.511E-03
            1939            2243     146.791E-03     149.511E-03
            1940            2244     124.173E-03     124.300E-03
            1941            2244     124.173E-03     124.300E-03
            1946            2244     124.173E-03     124.300E-03
            1945            2244     124.173E-03     124.300E-03
            1941            2245     99.3154E-03     98.5150E-03
            1942            2245     99.3154E-03     98.5150E-03
            1946            2245     99.3154E-03     98.5150E-03
            1947            2245     99.3154E-03     98.5150E-03
            1949            2246     177.958E-03     190.057E-03
            1944            2246     177.958E-03     190.057E-03
            1948            2246     177.958E-03     190.057E-03
            1943            2246     177.958E-03     190.057E-03
            1950            2247     154.137E-03     165.872E-03
            1949            2247     154.137E-03     165.872E-03
            1945            2247     154.137E-03     165.872E-03
            1944            2247     154.137E-03     165.872E-03
            1945            2248     128.961E-03     133.596E-03
            1951            2248     128.961E-03     133.596E-03
            1950            2248     128.961E-03     133.596E-03
            1946            2248     128.961E-03     133.596E-03
            1947            2249     100.029E-03     102.633E-03
            1946            2249     100.029E-03     102.633E-03
            1952            2249     100.029E-03     102.633E-03
            1951            2249     100.029E-03     102.633E-03
            1948            2250     211.349E-03     205.962E-03
            1949            2250     211.349E-03     205.962E-03
            1954            2250     211.349E-03     205.962E-03
            1953            2250     211.349E-03     205.962E-03
            1950            2251     184.164E-03     176.131E-03
            1949            2251     184.164E-03     176.131E-03
            1955            2251     184.164E-03     176.131E-03
            1954            2251     184.164E-03     176.131E-03
            1950            2252     147.905E-03     138.202E-03
            1956            2252     147.905E-03     138.202E-03
            1951            2252     147.905E-03     138.202E-03
            1955            2252     147.905E-03     138.202E-03
            1956            2253     106.839E-03     104.990E-03
            1951            2253     106.839E-03     104.990E-03
            1957            2253     106.839E-03     104.990E-03
            1952            2253     106.839E-03     104.990E-03
            1958            2254     229.054E-03     227.017E-03
            1954            2254     229.054E-03     227.017E-03
            1953            2254     229.054E-03     227.017E-03
            1959            2254     229.054E-03     227.017E-03
            1960            2255     192.133E-03     188.853E-03
            1955            2255     192.133E-03     188.853E-03
            1959            2255     192.133E-03     188.853E-03
            1954            2255     192.133E-03     188.853E-03
            1961            2256     149.921E-03     142.733E-03
            1955            2256     149.921E-03     142.733E-03
            1956            2256     149.921E-03     142.733E-03
            1960            2256     149.921E-03     142.733E-03
            1961            2257     106.376E-03     101.966E-03
            1957            2257     106.376E-03     101.966E-03
            1956            2257     106.376E-03     101.966E-03
            1962            2257     106.376E-03     101.966E-03
            1959            2258     204.669E-03     240.955E-03
            1963            2258     204.669E-03     240.955E-03
            1964            2258     204.669E-03     240.955E-03
            1958            2258     204.669E-03     240.955E-03
            1959            2259     169.328E-03     208.208E-03
            1960            2259     169.328E-03     208.208E-03
            1965            2259     169.328E-03     208.208E-03
            1964            2259     169.328E-03     208.208E-03
            1960            2260     131.657E-03     151.189E-03
            1965            2260     131.657E-03     151.189E-03
            1961            2260     131.657E-03     151.189E-03
            1966            2260     131.657E-03     151.189E-03
            1962            2261     98.6084E-03     102.782E-03
            1961            2261     98.6084E-03     102.782E-03
            1967            2261     98.6084E-03     102.782E-03
            1966            2261     98.6084E-03     102.782E-03
            1963            2262     219.978E-03     214.975E-03
            1968            2262     219.978E-03     214.975E-03
            1969            2262     219.978E-03     214.975E-03
            1964            2262     219.978E-03     214.975E-03
            1969            2263     193.069E-03     193.714E-03
            1970            2263     193.069E-03     193.714E-03
            1964            2263     193.069E-03     193.714E-03
            1965            2263     193.069E-03     193.714E-03
            1966            2264     146.161E-03     145.815E-03
            1971            2264     146.161E-03     145.815E-03
            1970            2264     146.161E-03     145.815E-03
            1965            2264     146.161E-03     145.815E-03
            1967            2265     104.336E-03     103.371E-03
            1972            2265     104.336E-03     103.371E-03
            1966            2265     104.336E-03     103.371E-03
            1971            2265     104.336E-03     103.371E-03
            1973            2266     225.729E-03     225.598E-03
            1969            2266     225.729E-03     225.598E-03
            1968            2266     225.729E-03     225.598E-03
            1974            2266     225.729E-03     225.598E-03
            1974            2267     200.625E-03     199.834E-03
            1969            2267     200.625E-03     199.834E-03
            1970            2267     200.625E-03     199.834E-03
            1975            2267     200.625E-03     199.834E-03
            1976            2268     157.814E-03     154.581E-03
            1970            2268     157.814E-03     154.581E-03
            1971            2268     157.814E-03     154.581E-03
            1975            2268     157.814E-03     154.581E-03
            1977            2269     110.324E-03     107.824E-03
            1971            2269     110.324E-03     107.824E-03
            1976            2269     110.324E-03     107.824E-03
            1972            2269     110.324E-03     107.824E-03
            1973            2270     231.801E-03     237.004E-03
            1978            2270     231.801E-03     237.004E-03
            1979            2270     231.801E-03     237.004E-03
            1974            2270     231.801E-03     237.004E-03
            1974            2271     199.554E-03     205.335E-03
            1980            2271     199.554E-03     205.335E-03
            1979            2271     199.554E-03     205.335E-03
            1975            2271     199.554E-03     205.335E-03
            1980            2272     159.761E-03     160.729E-03
            1976            2272     159.761E-03     160.729E-03
            1975            2272     159.761E-03     160.729E-03
            1981            2272     159.761E-03     160.729E-03
            1981            2273     113.534E-03     112.791E-03
            1976            2273     113.534E-03     112.791E-03
            1982            2273     113.534E-03     112.791E-03
            1977            2273     113.534E-03     112.791E-03
            1978            2274     243.624E-03     258.630E-03
            1983            2274     243.624E-03     258.630E-03
            1979            2274     243.624E-03     258.630E-03
            1984            2274     243.624E-03     258.630E-03
            1984            2275     206.977E-03     221.785E-03
            1979            2275     206.977E-03     221.785E-03
            1985            2275     206.977E-03     221.785E-03
            1980            2275     206.977E-03     221.785E-03
            1985            2276     164.877E-03     170.501E-03
            1986            2276     164.877E-03     170.501E-03
            1980            2276     164.877E-03     170.501E-03
            1981            2276     164.877E-03     170.501E-03
            1981            2277     114.052E-03     117.567E-03
            1982            2277     114.052E-03     117.567E-03
            1987            2277     114.052E-03     117.567E-03
            1986            2277     114.052E-03     117.567E-03
            1984            2278     281.104E-03     274.886E-03
            1989            2278     281.104E-03     274.886E-03
            1988            2278     281.104E-03     274.886E-03
            1983            2278     281.104E-03     274.886E-03
            1989            2279     242.403E-03     232.653E-03
            1990            2279     242.403E-03     232.653E-03
            1985            2279     242.403E-03     232.653E-03
            1984            2279     242.403E-03     232.653E-03
            1991            2280     187.579E-03     175.152E-03
            1985            2280     187.579E-03     175.152E-03
            1986            2280     187.579E-03     175.152E-03
            1990            2280     187.579E-03     175.152E-03
            1987            2281     122.061E-03     119.773E-03
            1991            2281     122.061E-03     119.773E-03
            1992            2281     122.061E-03     119.773E-03
            1986            2281     122.061E-03     119.773E-03
            1988            2282     300.302E-03     297.103E-03
            1989            2282     300.302E-03     297.103E-03
            1994            2282     300.302E-03     297.103E-03
            1993            2282     300.302E-03     297.103E-03
            1990            2283     250.409E-03     246.432E-03
            1994            2283     250.409E-03     246.432E-03
            1989            2283     250.409E-03     246.432E-03
            1995            2283     250.409E-03     246.432E-03
            1991            2284     187.965E-03     179.189E-03
            1995            2284     187.965E-03     179.189E-03
            1996            2284     187.965E-03     179.189E-03
            1990            2284     187.965E-03     179.189E-03
            1992            2285     120.320E-03     114.983E-03
            1996            2285     120.320E-03     114.983E-03
            1991            2285     120.320E-03     114.983E-03
            1997            2285     120.320E-03     114.983E-03
            1998            2286     268.560E-03     315.899E-03
            1994            2286     268.560E-03     315.899E-03
            1999            2286     268.560E-03     315.899E-03
            1993            2286     268.560E-03     315.899E-03
            1995            2287     218.337E-03     270.095E-03
            1999            2287     218.337E-03     270.095E-03
            2000            2287     218.337E-03     270.095E-03
            1994            2287     218.337E-03     270.095E-03
            1996            2288     163.033E-03     190.316E-03
            2000            2288     163.033E-03     190.316E-03
            1995            2288     163.033E-03     190.316E-03
            2001            2288     163.033E-03     190.316E-03
            2002            2289     109.881E-03     116.887E-03
            2001            2289     109.881E-03     116.887E-03
            1996            2289     109.881E-03     116.887E-03
            1997            2289     109.881E-03     116.887E-03
            2003            2290     289.465E-03     286.265E-03
            2004            2290     289.465E-03     286.265E-03
            1998            2290     289.465E-03     286.265E-03
            1999            2290     289.465E-03     286.265E-03
            1999            2291     251.184E-03     251.045E-03
            2004            2291     251.184E-03     251.045E-03
            2005            2291     251.184E-03     251.045E-03
            2000            2291     251.184E-03     251.045E-03
            2000            2292     185.504E-03     182.640E-03
            2001            2292     185.504E-03     182.640E-03
            2006            2292     185.504E-03     182.640E-03
            2005            2292     185.504E-03     182.640E-03
            2007            2293     119.563E-03     118.627E-03
            2006            2293     119.563E-03     118.627E-03
            2002            2293     119.563E-03     118.627E-03
            2001            2293     119.563E-03     118.627E-03
            2008            2294     299.869E-03     288.164E-03
            2009            2294     299.869E-03     288.164E-03
            2003            2294     299.869E-03     288.164E-03
            2004            2294     299.869E-03     288.164E-03
            2005            2295     261.918E-03     250.267E-03
            2010            2295     261.918E-03     250.267E-03
            2009            2295     261.918E-03     250.267E-03
            2004            2295     261.918E-03     250.267E-03
            2006            2296     199.510E-03     189.030E-03
            2011            2296     199.510E-03     189.030E-03
            2005            2296     199.510E-03     189.030E-03
            2010            2296     199.510E-03     189.030E-03
            2006            2297     127.299E-03     122.430E-03
            2011            2297     127.299E-03     122.430E-03
            2012            2297     127.299E-03     122.430E-03
            2007            2297     127.299E-03     122.430E-03
            2014            2298     286.680E-03     317.663E-03
            2013            2298     286.680E-03     317.663E-03
            2008            2298     286.680E-03     317.663E-03
            2009            2298     286.680E-03     317.663E-03
            2015            2299     242.562E-03     274.286E-03
            2014            2299     242.562E-03     274.286E-03
            2010            2299     242.562E-03     274.286E-03
            2009            2299     242.562E-03     274.286E-03
            2015            2300     191.059E-03     207.410E-03
            2011            2300     191.059E-03     207.410E-03
            2010            2300     191.059E-03     207.410E-03
            2016            2300     191.059E-03     207.410E-03
            2011            2301     124.873E-03     132.175E-03
            2016            2301     124.873E-03     132.175E-03
            2012            2301     124.873E-03     132.175E-03
            2017            2301     124.873E-03     132.175E-03
            2013            2302     337.312E-03     323.108E-03
            2018            2302     337.312E-03     323.108E-03
            2014            2302     337.312E-03     323.108E-03
            2019            2302     337.312E-03     323.108E-03
            2019            2303     290.023E-03     272.505E-03
            2015            2303     290.023E-03     272.505E-03
            2014            2303     290.023E-03     272.505E-03
            2020            2303     290.023E-03     272.505E-03
            2016            2304     220.044E-03     203.795E-03
            2015            2304     220.044E-03     203.795E-03
            2021            2304     220.044E-03     203.795E-03
            2020            2304     220.044E-03     203.795E-03
            2021            2305     134.576E-03     132.161E-03
            2016            2305     134.576E-03     132.161E-03
            2017            2305     134.576E-03     132.161E-03
            2022            2305     134.576E-03     132.161E-03
            2018            2306     354.129E-03     351.975E-03
            2019            2306     354.129E-03     351.975E-03
            2024            2306     354.129E-03     351.975E-03
            2023            2306     354.129E-03     351.975E-03
            2024            2307     295.458E-03     291.129E-03
            2020            2307     295.458E-03     291.129E-03
            2025            2307     295.458E-03     291.129E-03
            2019            2307     295.458E-03     291.129E-03
            2020            2308     218.804E-03     208.597E-03
            2026            2308     218.804E-03     208.597E-03
            2021            2308     218.804E-03     208.597E-03
            2025            2308     218.804E-03     208.597E-03
            2021            2309     132.076E-03     126.327E-03
            2026            2309     132.076E-03     126.327E-03
            2027            2309     132.076E-03     126.327E-03
            2022            2309     132.076E-03     126.327E-03
            2151            2384     360.613E-03     367.232E-03
            2146            2384     360.613E-03     367.232E-03
            2150            2384     360.613E-03     367.232E-03
            2145            2384     360.613E-03     367.232E-03
            2146            2385     324.361E-03     329.635E-03
            2151            2385     324.361E-03     329.635E-03
            2147            2385     324.361E-03     329.635E-03
            2152            2385     324.361E-03     329.635E-03
            2147            2386     271.499E-03     274.661E-03
            2148            2386     271.499E-03     274.661E-03
            2153            2386     271.499E-03     274.661E-03
            2152            2386     271.499E-03     274.661E-03
            2153            2387     220.570E-03     221.188E-03
            2154            2387     220.570E-03     221.188E-03
            2149            2387     220.570E-03     221.188E-03
            2148            2387     220.570E-03     221.188E-03
            2150            2388     335.512E-03     359.675E-03
            2156            2388     335.512E-03     359.675E-03
            2155            2388     335.512E-03     359.675E-03
            2151            2388     335.512E-03     359.675E-03
            2157            2389     299.559E-03     320.889E-03
            2151            2389     299.559E-03     320.889E-03
            2152            2389     299.559E-03     320.889E-03
            2156            2389     299.559E-03     320.889E-03
            2158            2390     262.336E-03     271.230E-03
            2153            2390     262.336E-03     271.230E-03
            2152            2390     262.336E-03     271.230E-03
            2157            2390     262.336E-03     271.230E-03
            2159            2391     226.978E-03     227.590E-03
            2154            2391     226.978E-03     227.590E-03
            2158            2391     226.978E-03     227.590E-03
            2153            2391     226.978E-03     227.590E-03
            2161            2392     339.005E-03     336.994E-03
            2155            2392     339.005E-03     336.994E-03
            2156            2392     339.005E-03     336.994E-03
            2160            2392     339.005E-03     336.994E-03
            2162            2393     302.154E-03     295.838E-03
            2157            2393     302.154E-03     295.838E-03
            2161            2393     302.154E-03     295.838E-03
            2156            2393     302.154E-03     295.838E-03
            2163            2394     261.535E-03     253.274E-03
            2162            2394     261.535E-03     253.274E-03
            2158            2394     261.535E-03     253.274E-03
            2157            2394     261.535E-03     253.274E-03
            2159            2395     218.523E-03     213.220E-03
            2164            2395     218.523E-03     213.220E-03
            2163            2395     218.523E-03     213.220E-03
            2158            2395     218.523E-03     213.220E-03
            2160            2396     306.937E-03     282.506E-03
            2161            2396     306.937E-03     282.506E-03
            2166            2396     306.937E-03     282.506E-03
            2165            2396     306.937E-03     282.506E-03
            2162            2397     291.990E-03     272.665E-03
            2161            2397     291.990E-03     272.665E-03
            2166            2397     291.990E-03     272.665E-03
            2167            2397     291.990E-03     272.665E-03
            2162            2398     252.336E-03     238.584E-03
            2163            2398     252.336E-03     238.584E-03
            2167            2398     252.336E-03     238.584E-03
            2168            2398     252.336E-03     238.584E-03
            2164            2399     214.779E-03     211.393E-03
            2168            2399     214.779E-03     211.393E-03
            2169            2399     214.779E-03     211.393E-03
            2163            2399     214.779E-03     211.393E-03
            2171            2400     201.719E-03     196.612E-03
            2170            2400     201.719E-03     196.612E-03
            2176            2400     201.719E-03     196.612E-03
            2175            2400     201.719E-03     196.612E-03
            2172            2401     219.860E-03     213.333E-03
            2171            2401     219.860E-03     213.333E-03
            2176            2401     219.860E-03     213.333E-03
            2177            2401     219.860E-03     213.333E-03
            2172            2402     236.500E-03     232.173E-03
            2178            2402     236.500E-03     232.173E-03
            2173            2402     236.500E-03     232.173E-03
            2177            2402     236.500E-03     232.173E-03
            2179            2403     254.640E-03     255.060E-03
            2174            2403     254.640E-03     255.060E-03
            2173            2403     254.640E-03     255.060E-03
            2178            2403     254.640E-03     255.060E-03
            2180            2404     199.981E-03     197.277E-03
            2175            2404     199.981E-03     197.277E-03
            2181            2404     199.981E-03     197.277E-03
            2176            2404     199.981E-03     197.277E-03
            2182            2405     214.133E-03     203.334E-03
            2181            2405     214.133E-03     203.334E-03
            2176            2405     214.133E-03     203.334E-03
            2177            2405     214.133E-03     203.334E-03
            2178            2406     231.589E-03     214.204E-03
            2183            2406     231.589E-03     214.204E-03
            2182            2406     231.589E-03     214.204E-03
            2177            2406     231.589E-03     214.204E-03
            2179            2407     230.336E-03     206.227E-03
            2183            2407     230.336E-03     206.227E-03
            2178            2407     230.336E-03     206.227E-03
            2184            2407     230.336E-03     206.227E-03
            2181            2408     193.594E-03     197.116E-03
            2185            2408     193.594E-03     197.116E-03
            2186            2408     193.594E-03     197.116E-03
            2180            2408     193.594E-03     197.116E-03
            2187            2409     192.081E-03     207.354E-03
            2182            2409     192.081E-03     207.354E-03
            2181            2409     192.081E-03     207.354E-03
            2186            2409     192.081E-03     207.354E-03
            2188            2410     188.825E-03     225.320E-03
            2182            2410     188.825E-03     225.320E-03
            2187            2410     188.825E-03     225.320E-03
            2183            2410     188.825E-03     225.320E-03
            2189            2411     197.302E-03     235.164E-03
            2183            2411     197.302E-03     235.164E-03
            2184            2411     197.302E-03     235.164E-03
            2188            2411     197.302E-03     235.164E-03
            2190            2412     203.021E-03     197.542E-03
            2185            2412     203.021E-03     197.542E-03
            2191            2412     203.021E-03     197.542E-03
            2186            2412     203.021E-03     197.542E-03
            2187            2413     203.799E-03     196.800E-03
            2191            2413     203.799E-03     196.800E-03
            2186            2413     203.799E-03     196.800E-03
            2192            2413     203.799E-03     196.800E-03
            2193            2414     204.530E-03     202.088E-03
            2188            2414     204.530E-03     202.088E-03
            2192            2414     204.530E-03     202.088E-03
            2187            2414     204.530E-03     202.088E-03
            2188            2415     224.426E-03     224.973E-03
            2189            2415     224.426E-03     224.973E-03
            2193            2415     224.426E-03     224.973E-03
            2194            2415     224.426E-03     224.973E-03
            2190            2416     201.372E-03     198.975E-03
            2195            2416     201.372E-03     198.975E-03
            2196            2416     201.372E-03     198.975E-03
            2191            2416     201.372E-03     198.975E-03
            2196            2417     197.294E-03     188.222E-03
            2192            2417     197.294E-03     188.222E-03
            2197            2417     197.294E-03     188.222E-03
            2191            2417     197.294E-03     188.222E-03
            2197            2418     190.070E-03     179.338E-03
            2192            2418     190.070E-03     179.338E-03
            2198            2418     190.070E-03     179.338E-03
            2193            2418     190.070E-03     179.338E-03
            2199            2419     190.227E-03     180.427E-03
            2193            2419     190.227E-03     180.427E-03
            2194            2419     190.227E-03     180.427E-03
            2198            2419     190.227E-03     180.427E-03
            2195            2420     193.733E-03     195.823E-03
            2201            2420     193.733E-03     195.823E-03
            2200            2420     193.733E-03     195.823E-03
            2196            2420     193.733E-03     195.823E-03
            2197            2421     176.825E-03     182.088E-03
            2202            2421     176.825E-03     182.088E-03
            2196            2421     176.825E-03     182.088E-03
            2201            2421     176.825E-03     182.088E-03
            2202            2422     150.007E-03     161.563E-03
            2203            2422     150.007E-03     161.563E-03
            2197            2422     150.007E-03     161.563E-03
            2198            2422     150.007E-03     161.563E-03
            2203            2423     131.821E-03     146.049E-03
            2198            2423     131.821E-03     146.049E-03
            2204            2423     131.821E-03     146.049E-03
            2199            2423     131.821E-03     146.049E-03
            2200            2424     192.677E-03     192.093E-03
            2205            2424     192.677E-03     192.093E-03
            2206            2424     192.677E-03     192.093E-03
            2201            2424     192.677E-03     192.093E-03
            2207            2425     171.352E-03     170.773E-03
            2201            2425     171.352E-03     170.773E-03
            2206            2425     171.352E-03     170.773E-03
            2202            2425     171.352E-03     170.773E-03
            2203            2426     137.838E-03     133.280E-03
            2208            2426     137.838E-03     133.280E-03
            2202            2426     137.838E-03     133.280E-03
            2207            2426     137.838E-03     133.280E-03
            2209            2427     105.359E-03     97.5228E-03
            2204            2427     105.359E-03     97.5228E-03
            2208            2427     105.359E-03     97.5228E-03
            2203            2427     105.359E-03     97.5228E-03
            2205            2428     191.134E-03     190.360E-03
            2211            2428     191.134E-03     190.360E-03
            2206            2428     191.134E-03     190.360E-03
            2210            2428     191.134E-03     190.360E-03
            2211            2429     163.594E-03     166.435E-03
            2206            2429     163.594E-03     166.435E-03
            2212            2429     163.594E-03     166.435E-03
            2207            2429     163.594E-03     166.435E-03
            2213            2430     122.965E-03     126.036E-03
            2212            2430     122.965E-03     126.036E-03
            2207            2430     122.965E-03     126.036E-03
            2208            2430     122.965E-03     126.036E-03
            2208            2431     71.8010E-03     73.0790E-03
            2209            2431     71.8010E-03     73.0790E-03
            2214            2431     71.8010E-03     73.0790E-03
            2213            2431     71.8010E-03     73.0790E-03
            2216            2432     190.122E-03     187.994E-03
            2210            2432     190.122E-03     187.994E-03
            2211            2432     190.122E-03     187.994E-03
            2215            2432     190.122E-03     187.994E-03
            2212            2433     158.664E-03     160.730E-03
            2211            2433     158.664E-03     160.730E-03
            2216            2433     158.664E-03     160.730E-03
            2217            2433     158.664E-03     160.730E-03
            2218            2434     117.252E-03     121.112E-03
            2217            2434     117.252E-03     121.112E-03
            2212            2434     117.252E-03     121.112E-03
            2213            2434     117.252E-03     121.112E-03
            2213            2435     63.3278E-03     70.9222E-03
            2218            2435     63.3278E-03     70.9222E-03
            2219            2435     63.3278E-03     70.9222E-03
            2214            2435     63.3278E-03     70.9222E-03
            2220            2436     154.946E-03     154.101E-03
            2221            2436     154.946E-03     154.101E-03
            2216            2436     154.946E-03     154.101E-03
            2215            2436     154.946E-03     154.101E-03
            2217            2437     132.998E-03     133.155E-03
            2221            2437     132.998E-03     133.155E-03
            2216            2437     132.998E-03     133.155E-03
            2222            2437     132.998E-03     133.155E-03
            2222            2438     102.147E-03     102.867E-03
            2223            2438     102.147E-03     102.867E-03
            2218            2438     102.147E-03     102.867E-03
            2217            2438     102.147E-03     102.867E-03
            2219            2439     64.8650E-03     69.2752E-03
            2224            2439     64.8650E-03     69.2752E-03
            2223            2439     64.8650E-03     69.2752E-03
            2218            2439     64.8650E-03     69.2752E-03
            2727            2828     159.416E-03     167.156E-03
            2722            2828     159.416E-03     167.156E-03
            2721            2828     159.416E-03     167.156E-03
            2726            2828     159.416E-03     167.156E-03
            2728            2829     232.518E-03     247.855E-03
            2727            2829     232.518E-03     247.855E-03
            2723            2829     232.518E-03     247.855E-03
            2722            2829     232.518E-03     247.855E-03
            2728            2830     301.631E-03     323.988E-03
            2723            2830     301.631E-03     323.988E-03
            2729            2830     301.631E-03     323.988E-03
            2724            2830     301.631E-03     323.988E-03
            2724            2831     351.176E-03     368.394E-03
            2725            2831     351.176E-03     368.394E-03
            2730            2831     351.176E-03     368.394E-03
            2729            2831     351.176E-03     368.394E-03
            2726            2832     179.903E-03     185.755E-03
            2727            2832     179.903E-03     185.755E-03
            2732            2832     179.903E-03     185.755E-03
            2731            2832     179.903E-03     185.755E-03
            2732            2833     259.847E-03     267.229E-03
            2728            2833     259.847E-03     267.229E-03
            2733            2833     259.847E-03     267.229E-03
            2727            2833     259.847E-03     267.229E-03
            2734            2834     331.801E-03     346.110E-03
            2733            2834     331.801E-03     346.110E-03
            2728            2834     331.801E-03     346.110E-03
            2729            2834     331.801E-03     346.110E-03
            2729            2835     380.997E-03     388.498E-03
            2734            2835     380.997E-03     388.498E-03
            2730            2835     380.997E-03     388.498E-03
            2735            2835     380.997E-03     388.498E-03
            2731            2836     189.696E-03     185.490E-03
            2737            2836     189.696E-03     185.490E-03
            2732            2836     189.696E-03     185.490E-03
            2736            2836     189.696E-03     185.490E-03
            2732            2837     289.194E-03     269.201E-03
            2738            2837     289.194E-03     269.201E-03
            2737            2837     289.194E-03     269.201E-03
            2733            2837     289.194E-03     269.201E-03
            2734            2838     368.041E-03     342.204E-03
            2738            2838     368.041E-03     342.204E-03
            2739            2838     368.041E-03     342.204E-03
            2733            2838     368.041E-03     342.204E-03
            2734            2839     408.601E-03     383.178E-03
            2739            2839     408.601E-03     383.178E-03
            2740            2839     408.601E-03     383.178E-03
            2735            2839     408.601E-03     383.178E-03
            2737            2840     180.668E-03     178.084E-03
            2741            2840     180.668E-03     178.084E-03
            2736            2840     180.668E-03     178.084E-03
            2742            2840     180.668E-03     178.084E-03
            2743            2841     271.571E-03     267.392E-03
            2737            2841     271.571E-03     267.392E-03
            2738            2841     271.571E-03     267.392E-03
            2742            2841     271.571E-03     267.392E-03
            2743            2842     345.425E-03     348.871E-03
            2744            2842     345.425E-03     348.871E-03
            2738            2842     345.425E-03     348.871E-03
            2739            2842     345.425E-03     348.871E-03
            2744            2843     392.908E-03     403.338E-03
            2739            2843     392.908E-03     403.338E-03
            2740            2843     392.908E-03     403.338E-03
            2745            2843     392.908E-03     403.338E-03
            2764            2854     259.773E-03     259.787E-03
            2765            2854     259.773E-03     259.787E-03
            2769            2854     259.773E-03     259.787E-03
            2770            2854     259.773E-03     259.787E-03
            2771            2855     238.883E-03     234.660E-03
            2765            2855     238.883E-03     234.660E-03
            2770            2855     238.883E-03     234.660E-03
            2766            2855     238.883E-03     234.660E-03
            2772            2856     221.125E-03     214.895E-03
            2766            2856     221.125E-03     214.895E-03
            2767            2856     221.125E-03     214.895E-03
            2771            2856     221.125E-03     214.895E-03
            2772            2857     202.259E-03     197.448E-03
            2767            2857     202.259E-03     197.448E-03
            2768            2857     202.259E-03     197.448E-03
            2773            2857     202.259E-03     197.448E-03
            2769            2858     233.466E-03     208.877E-03
            2775            2858     233.466E-03     208.877E-03
            2770            2858     233.466E-03     208.877E-03
            2774            2858     233.466E-03     208.877E-03
            2776            2859     233.382E-03     214.606E-03
            2775            2859     233.382E-03     214.606E-03
            2771            2859     233.382E-03     214.606E-03
            2770            2859     233.382E-03     214.606E-03
            2771            2860     215.081E-03     202.886E-03
            2776            2860     215.081E-03     202.886E-03
            2772            2860     215.081E-03     202.886E-03
            2777            2860     215.081E-03     202.886E-03
            2773            2861     200.250E-03     196.787E-03
            2772            2861     200.250E-03     196.787E-03
            2778            2861     200.250E-03     196.787E-03
            2777            2861     200.250E-03     196.787E-03
            2774            2862     199.155E-03     238.373E-03
            2780            2862     199.155E-03     238.373E-03
            2775            2862     199.155E-03     238.373E-03
            2779            2862     199.155E-03     238.373E-03
            2775            2863     188.645E-03     227.105E-03
            2781            2863     188.645E-03     227.105E-03
            2780            2863     188.645E-03     227.105E-03
            2776            2863     188.645E-03     227.105E-03
            2781            2864     190.897E-03     207.924E-03
            2777            2864     190.897E-03     207.924E-03
            2782            2864     190.897E-03     207.924E-03
            2776            2864     190.897E-03     207.924E-03
            2782            2865     192.611E-03     197.105E-03
            2777            2865     192.611E-03     197.105E-03
            2783            2865     192.611E-03     197.105E-03
            2778            2865     192.611E-03     197.105E-03
            2785            2866     227.936E-03     228.179E-03
            2784            2866     227.936E-03     228.179E-03
            2779            2866     227.936E-03     228.179E-03
            2780            2866     227.936E-03     228.179E-03
            2785            2867     205.239E-03     202.922E-03
            2780            2867     205.239E-03     202.922E-03
            2781            2867     205.239E-03     202.922E-03
            2786            2867     205.239E-03     202.922E-03
            2787            2868     203.264E-03     196.528E-03
            2786            2868     203.264E-03     196.528E-03
            2781            2868     203.264E-03     196.528E-03
            2782            2868     203.264E-03     196.528E-03
            2782            2869     202.429E-03     197.130E-03
            2783            2869     202.429E-03     197.130E-03
            2787            2869     202.429E-03     197.130E-03
            2788            2869     202.429E-03     197.130E-03
            2789            2870     192.603E-03     182.696E-03
            2790            2870     192.603E-03     182.696E-03
            2785            2870     192.603E-03     182.696E-03
            2784            2870     192.603E-03     182.696E-03
            2786            2871     189.665E-03     178.401E-03
            2790            2871     189.665E-03     178.401E-03
            2791            2871     189.665E-03     178.401E-03
            2785            2871     189.665E-03     178.401E-03
            2787            2872     195.981E-03     186.200E-03
            2786            2872     195.981E-03     186.200E-03
            2792            2872     195.981E-03     186.200E-03
            2791            2872     195.981E-03     186.200E-03
            2788            2873     200.457E-03     197.661E-03
            2793            2873     200.457E-03     197.661E-03
            2787            2873     200.457E-03     197.661E-03
            2792            2873     200.457E-03     197.661E-03
            2794            2874     132.409E-03     147.221E-03
            2789            2874     132.409E-03     147.221E-03
            2790            2874     132.409E-03     147.221E-03
            2795            2874     132.409E-03     147.221E-03
            2796            2875     146.854E-03     159.387E-03
            2791            2875     146.854E-03     159.387E-03
            2795            2875     146.854E-03     159.387E-03
            2790            2875     146.854E-03     159.387E-03
            2791            2876     173.339E-03     179.227E-03
            2797            2876     173.339E-03     179.227E-03
            2796            2876     173.339E-03     179.227E-03
            2792            2876     173.339E-03     179.227E-03
            2792            2877     191.708E-03     194.093E-03
            2798            2877     191.708E-03     194.093E-03
            2793            2877     191.708E-03     194.093E-03
            2797            2877     191.708E-03     194.093E-03
            2795            2878     104.668E-03     96.8890E-03
            2800            2878     104.668E-03     96.8890E-03
            2799            2878     104.668E-03     96.8890E-03
            2794            2878     104.668E-03     96.8890E-03
            2800            2879     133.199E-03     128.432E-03
            2795            2879     133.199E-03     128.432E-03
            2801            2879     133.199E-03     128.432E-03
            2796            2879     133.199E-03     128.432E-03
            2797            2880     167.030E-03     166.260E-03
            2801            2880     167.030E-03     166.260E-03
            2802            2880     167.030E-03     166.260E-03
            2796            2880     167.030E-03     166.260E-03
            2803            2881     190.238E-03     189.550E-03
            2802            2881     190.238E-03     189.550E-03
            2797            2881     190.238E-03     189.550E-03
            2798            2881     190.238E-03     189.550E-03
            2800            2882     67.0931E-03     70.3079E-03
            2804            2882     67.0931E-03     70.3079E-03
            2805            2882     67.0931E-03     70.3079E-03
            2799            2882     67.0931E-03     70.3079E-03
            2801            2883     116.245E-03     119.522E-03
            2805            2883     116.245E-03     119.522E-03
            2806            2883     116.245E-03     119.522E-03
            2800            2883     116.245E-03     119.522E-03
            2807            2884     158.303E-03     161.206E-03
            2801            2884     158.303E-03     161.206E-03
            2806            2884     158.303E-03     161.206E-03
            2802            2884     158.303E-03     161.206E-03
            2808            2885     188.238E-03     187.486E-03
            2802            2885     188.238E-03     187.486E-03
            2803            2885     188.238E-03     187.486E-03
            2807            2885     188.238E-03     187.486E-03
            2810            2886     55.1422E-03     65.0220E-03
            2804            2886     55.1422E-03     65.0220E-03
            2809            2886     55.1422E-03     65.0220E-03
            2805            2886     55.1422E-03     65.0220E-03
            2811            2887     109.314E-03     113.509E-03
            2806            2887     109.314E-03     113.509E-03
            2805            2887     109.314E-03     113.509E-03
            2810            2887     109.314E-03     113.509E-03
            2812            2888     152.869E-03     155.135E-03
            2806            2888     152.869E-03     155.135E-03
            2807            2888     152.869E-03     155.135E-03
            2811            2888     152.869E-03     155.135E-03
            2812            2889     187.002E-03     185.000E-03
            2813            2889     187.002E-03     185.000E-03
            2808            2889     187.002E-03     185.000E-03
            2807            2889     187.002E-03     185.000E-03
            2814            2890     57.0737E-03     62.1345E-03
            2815            2890     57.0737E-03     62.1345E-03
            2810            2890     57.0737E-03     62.1345E-03
            2809            2890     57.0737E-03     62.1345E-03
            2816            2891     95.2301E-03     95.8905E-03
            2810            2891     95.2301E-03     95.8905E-03
            2811            2891     95.2301E-03     95.8905E-03
            2815            2891     95.2301E-03     95.8905E-03
            2816            2892     127.950E-03     128.099E-03
            2817            2892     127.950E-03     128.099E-03
            2811            2892     127.950E-03     128.099E-03
            2812            2892     127.950E-03     128.099E-03
            2817            2893     152.258E-03     151.445E-03
            2813            2893     152.258E-03     151.445E-03
            2818            2893     152.258E-03     151.445E-03
            2812            2893     152.258E-03     151.445E-03
            2858            2912     528.911E-06     530.368E-06
            2853            2912     528.911E-06     530.368E-06
            2852            2912     528.911E-06     530.368E-06
            2857            2912     528.911E-06     530.368E-06
            2854            2913     460.244E-06     456.750E-06
            2853            2913     460.244E-06     456.750E-06
            2858            2913     460.244E-06     456.750E-06
            2859            2913     460.244E-06     456.750E-06
            2854            2914     482.715E-06     468.005E-06
            2860            2914     482.715E-06     468.005E-06
            2859            2914     482.715E-06     468.005E-06
            2855            2914     482.715E-06     468.005E-06
            2856            2915     508.825E-06     494.082E-06
            2860            2915     508.825E-06     494.082E-06
            2861            2915     508.825E-06     494.082E-06
            2855            2915     508.825E-06     494.082E-06
            2858            2916     414.880E-06     394.434E-06
            2863            2916     414.880E-06     394.434E-06
            2862            2916     414.880E-06     394.434E-06
            2857            2916     414.880E-06     394.434E-06
            2858            2917     413.479E-06     384.523E-06
            2864            2917     413.479E-06     384.523E-06
            2863            2917     413.479E-06     384.523E-06
            2859            2917     413.479E-06     384.523E-06
            2859            2918     462.874E-06     439.895E-06
            2860            2918     462.874E-06     439.895E-06
            2865            2918     462.874E-06     439.895E-06
            2864            2918     462.874E-06     439.895E-06
            2865            2919     503.526E-06     494.721E-06
            2866            2919     503.526E-06     494.721E-06
            2861            2919     503.526E-06     494.721E-06
            2860            2919     503.526E-06     494.721E-06
            2863            2920     250.484E-06     273.670E-06
            2862            2920     250.484E-06     273.670E-06
            2868            2920     250.484E-06     273.670E-06
            2867            2920     250.484E-06     273.670E-06
            2863            2921     303.875E-06     323.914E-06
            2864            2921     303.875E-06     323.914E-06
            2868            2921     303.875E-06     323.914E-06
            2869            2921     303.875E-06     323.914E-06
            2865            2922     410.026E-06     422.260E-06
            2870            2922     410.026E-06     422.260E-06
            2869            2922     410.026E-06     422.260E-06
            2864            2922     410.026E-06     422.260E-06
            2871            2923     483.332E-06     485.810E-06
            2870            2923     483.332E-06     485.810E-06
            2865            2923     483.332E-06     485.810E-06
            2866            2923     483.332E-06     485.810E-06
            2868            2924     182.056E-06     160.346E-06
            2867            2924     182.056E-06     160.346E-06
            2873            2924     182.056E-06     160.346E-06
            2872            2924     182.056E-06     160.346E-06
            2873            2925     268.286E-06     259.275E-06
            2868            2925     268.286E-06     259.275E-06
            2869            2925     268.286E-06     259.275E-06
            2874            2925     268.286E-06     259.275E-06
            2875            2926     397.340E-06     396.106E-06
            2870            2926     397.340E-06     396.106E-06
            2874            2926     397.340E-06     396.106E-06
            2869            2926     397.340E-06     396.106E-06
            2870            2927     484.709E-06     477.515E-06
            2876            2927     484.709E-06     477.515E-06
            2871            2927     484.709E-06     477.515E-06
            2875            2927     484.709E-06     477.515E-06
            2877            2928     144.022E-06     179.023E-06
            2873            2928     144.022E-06     179.023E-06
            2878            2928     144.022E-06     179.023E-06
            2872            2928     144.022E-06     179.023E-06
            2873            2929     242.705E-06     255.516E-06
            2874            2929     242.705E-06     255.516E-06
            2879            2929     242.705E-06     255.516E-06
            2878            2929     242.705E-06     255.516E-06
            2879            2930     383.951E-06     384.671E-06
            2880            2930     383.951E-06     384.671E-06
            2874            2930     383.951E-06     384.671E-06
            2875            2930     383.951E-06     384.671E-06
            2876            2931     481.177E-06     472.702E-06
            2881            2931     481.177E-06     472.702E-06
            2880            2931     481.177E-06     472.702E-06
            2875            2931     481.177E-06     472.702E-06
            3192            3177     508.825E-06     494.082E-06
            3187            3177     508.825E-06     494.082E-06
            3188            3177     508.825E-06     494.082E-06
            3193            3177     508.825E-06     494.082E-06
            3193            3178     482.715E-06     468.005E-06
            3189            3178     482.715E-06     468.005E-06
            3188            3178     482.715E-06     468.005E-06
            3194            3178     482.715E-06     468.005E-06
            3194            3179     460.244E-06     456.750E-06
            3190            3179     460.244E-06     456.750E-06
            3195            3179     460.244E-06     456.750E-06
            3189            3179     460.244E-06     456.750E-06
            3195            3180     528.911E-06     530.368E-06
            3196            3180     528.911E-06     530.368E-06
            3190            3180     528.911E-06     530.368E-06
            3191            3180     528.911E-06     530.368E-06
            3198            3181     503.526E-06     494.721E-06
            3193            3181     503.526E-06     494.721E-06
            3197            3181     503.526E-06     494.721E-06
            3192            3181     503.526E-06     494.721E-06
            3194            3182     462.874E-06     439.895E-06
            3198            3182     462.874E-06     439.895E-06
            3193            3182     462.874E-06     439.895E-06
            3199            3182     462.874E-06     439.895E-06
            3199            3183     413.479E-06     384.523E-06
            3194            3183     413.479E-06     384.523E-06
            3200            3183     413.479E-06     384.523E-06
            3195            3183     413.479E-06     384.523E-06
            3200            3184     414.880E-06     394.434E-06
            3201            3184     414.880E-06     394.434E-06
            3195            3184     414.880E-06     394.434E-06
            3196            3184     414.880E-06     394.434E-06
            3203            3185     483.332E-06     485.810E-06
            3202            3185     483.332E-06     485.810E-06
            3197            3185     483.332E-06     485.810E-06
            3198            3185     483.332E-06     485.810E-06
            3199            3186     410.026E-06     422.260E-06
            3203            3186     410.026E-06     422.260E-06
            3204            3186     410.026E-06     422.260E-06
            3198            3186     410.026E-06     422.260E-06
            3204            3187     303.875E-06     323.914E-06
            3199            3187     303.875E-06     323.914E-06
            3200            3187     303.875E-06     323.914E-06
            3205            3187     303.875E-06     323.914E-06
            3205            3188     250.484E-06     273.670E-06
            3200            3188     250.484E-06     273.670E-06
            3201            3188     250.484E-06     273.670E-06
            3206            3188     250.484E-06     273.670E-06
            3203            3189     484.709E-06     477.515E-06
            3208            3189     484.709E-06     477.515E-06
            3202            3189     484.709E-06     477.515E-06
            3207            3189     484.709E-06     477.515E-06
            3203            3190     397.340E-06     396.106E-06
            3204            3190     397.340E-06     396.106E-06
            3208            3190     397.340E-06     396.106E-06
            3209            3190     397.340E-06     396.106E-06
            3205            3191     268.286E-06     259.275E-06
            3209            3191     268.286E-06     259.275E-06
            3210            3191     268.286E-06     259.275E-06
            3204            3191     268.286E-06     259.275E-06
            3210            3192     182.056E-06     160.346E-06
            3206            3192     182.056E-06     160.346E-06
            3205            3192     182.056E-06     160.346E-06
            3211            3192     182.056E-06     160.346E-06
            3213            3193     481.177E-06     472.702E-06
            3212            3193     481.177E-06     472.702E-06
            3207            3193     481.177E-06     472.702E-06
            3208            3193     481.177E-06     472.702E-06
            3214            3194     383.951E-06     384.671E-06
            3208            3194     383.951E-06     384.671E-06
            3213            3194     383.951E-06     384.671E-06
            3209            3194     383.951E-06     384.671E-06
            3214            3195     242.705E-06     255.516E-06
            3209            3195     242.705E-06     255.516E-06
            3210            3195     242.705E-06     255.516E-06
            3215            3195     242.705E-06     255.516E-06
            3215            3196     144.022E-06     179.023E-06
            3210            3196     144.022E-06     179.023E-06
            3211            3196     144.022E-06     179.023E-06
            3216            3196     144.022E-06     179.023E-06


  Minimum                            120.633E-06     145.888E-06
      At Element                            1643            3211
            Node                             151             597

  Maximum                            425.537E-03     448.918E-03
      At Element                            1668            2145
            Node                             317              16

           Total                         378.363         383.745


Field Output reported at element nodes for region: CRJ700-1.Region_2
   Computation algorithm: EXTRAPOLATE_COMPUTE_AVERAGE
   Averaged at nodes
   Averaging regions: ODB_REGIONS

   Element Label      Node Label         S.Mises         S.Mises
                                          @Loc 1          @Loc 2
-----------------------------------------------------------------
            2030               2     21.9478E-03     21.7753E-03
             841               2     21.9478E-03     21.7753E-03
             981               3     316.098E-03     304.513E-03
            2129               3     316.098E-03     304.513E-03
             963               5     21.9567E-03     21.7840E-03
             859               5     21.9567E-03     21.7840E-03
             978               6     463.000E-06     468.325E-06
             856               9     463.000E-06     468.325E-06
            2225              11     328.497E-03     315.746E-03
             958              11     328.497E-03     315.746E-03
             861              13     21.7757E-03     21.6182E-03
            2028              13     21.7757E-03     21.6182E-03
             843              13     21.7757E-03     21.6182E-03
             961              13     21.7757E-03     21.6182E-03
             976              14     611.072E-06     608.554E-06
             858              14     611.072E-06     608.554E-06
            2227              15     79.3505E-03     79.4885E-03
             960              15     79.3505E-03     79.4885E-03
            2127              15     79.3505E-03     79.4885E-03
             979              15     79.3505E-03     79.4885E-03
            2839              16     393.408E-03     380.918E-03
             993              16     393.408E-03     380.918E-03
             991              17     123.962E-03     123.935E-03
            2239              17     123.962E-03     123.935E-03
            2837              17     123.962E-03     123.935E-03
            2132              17     123.962E-03     123.935E-03
            2130              20     384.999E-03     382.141E-03
            2237              20     384.999E-03     382.141E-03
            2242              21     276.485E-03     266.073E-03
            2851              21     276.485E-03     266.073E-03
            2882              23     271.665E-03     261.355E-03
            2142              23     271.665E-03     261.355E-03
            2849              25     204.446E-03     204.506E-03
            2884              25     204.446E-03     204.506E-03
            2144              25     204.446E-03     204.506E-03
            2240              25     204.446E-03     204.506E-03
            2746              26     50.9361E-03     50.5495E-03
            2912              26     50.9361E-03     50.5495E-03
            2272              28     50.9475E-03     50.5607E-03
            2821              28     50.9475E-03     50.5607E-03
            2914              29     50.6284E-03     50.2555E-03
            2819              29     50.6284E-03     50.2555E-03
            2748              29     50.6284E-03     50.2555E-03
            2270              29     50.6284E-03     50.2555E-03
            2836              31     462.931E-06     468.200E-06
            2763              33     611.155E-06     608.693E-06
            2834              33     611.155E-06     608.693E-06
            2761              34     462.931E-06     468.200E-06
            2033              51     52.0215E-03     52.0638E-03
            2030              51     52.0215E-03     52.0638E-03
            2036              52     58.9879E-03     60.4340E-03
            2033              52     58.9879E-03     60.4340E-03
            2036              53     58.0495E-03     59.8456E-03
            2039              53     58.0495E-03     59.8456E-03
            2039              54     64.7369E-03     65.2022E-03
            2042              54     64.7369E-03     65.2022E-03
            2042              55     74.7527E-03     74.6972E-03
            2045              55     74.7527E-03     74.6972E-03
            2048              56     88.4398E-03     88.1869E-03
            2045              56     88.4398E-03     88.1869E-03
            2051              57     108.383E-03     106.469E-03
            2048              57     108.383E-03     106.469E-03
            2054              58     96.6127E-03     91.6518E-03
            2051              58     96.6127E-03     91.6518E-03
            2057              59     83.5300E-03     82.9747E-03
            2054              59     83.5300E-03     82.9747E-03
            2057              60     101.086E-03     103.892E-03
            2060              60     101.086E-03     103.892E-03
            2060              61     116.270E-03     116.404E-03
            2063              61     116.270E-03     116.404E-03
            2063              62     133.415E-03     133.681E-03
            2066              62     133.415E-03     133.681E-03
            2069              63     154.908E-03     151.100E-03
            2066              63     154.908E-03     151.100E-03
            2069              64     141.015E-03     129.907E-03
            2072              64     141.015E-03     129.907E-03
            2075              65     127.476E-03     124.157E-03
            2072              65     127.476E-03     124.157E-03
            2075              66     148.287E-03     151.639E-03
            2078              66     148.287E-03     151.639E-03
            2078              67     165.110E-03     164.633E-03
            2081              67     165.110E-03     164.633E-03
            2081              68     180.143E-03     179.139E-03
            2084              68     180.143E-03     179.139E-03
            2084              69     197.526E-03     197.318E-03
            2087              69     197.526E-03     197.318E-03
            2087              70     218.384E-03     212.305E-03
            2090              70     218.384E-03     212.305E-03
            2090              71     201.976E-03     184.731E-03
            2093              71     201.976E-03     184.731E-03
            2096              72     187.136E-03     181.406E-03
            2093              72     187.136E-03     181.406E-03
            2096              73     209.496E-03     213.237E-03
            2099              73     209.496E-03     213.237E-03
            2102              74     226.692E-03     225.791E-03
            2099              74     226.692E-03     225.791E-03
            2102              75     241.836E-03     240.432E-03
            2105              75     241.836E-03     240.432E-03
            2105              76     259.288E-03     259.438E-03
            2108              76     259.288E-03     259.438E-03
            2111              77     279.452E-03     271.299E-03
            2108              77     279.452E-03     271.299E-03
            2111              78     262.627E-03     240.661E-03
            2114              78     262.627E-03     240.661E-03
            2114              79     249.819E-03     242.662E-03
            2117              79     249.819E-03     242.662E-03
            2120              80     273.502E-03     278.324E-03
            2117              80     273.502E-03     278.324E-03
            2123              81     289.900E-03     289.491E-03
            2120              81     289.900E-03     289.491E-03
            2123              82     308.052E-03     310.144E-03
            2126              82     308.052E-03     310.144E-03
            2126              83     327.993E-03     318.634E-03
            2129              83     327.993E-03     318.634E-03
             966             147     665.112E-06     654.934E-06
             963             147     665.112E-06     654.934E-06
             969             148     530.156E-06     534.152E-06
             966             148     530.156E-06     534.152E-06
             972             149     448.171E-06     453.866E-06
             969             149     448.171E-06     453.866E-06
             972             150     412.016E-06     423.686E-06
             975             150     412.016E-06     423.686E-06
             975             151     433.589E-06     443.634E-06
             978             151     433.589E-06     443.634E-06
             841             176     665.112E-06     654.934E-06
             844             176     665.112E-06     654.934E-06
             847             177     530.156E-06     534.152E-06
             844             177     530.156E-06     534.152E-06
             847             178     448.171E-06     453.866E-06
             850             178     448.171E-06     453.866E-06
             853             179     412.016E-06     423.686E-06
             850             179     412.016E-06     423.686E-06
             856             180     433.589E-06     443.634E-06
             853             180     433.589E-06     443.634E-06
             859             194     51.5507E-03     51.6299E-03
             862             194     51.5507E-03     51.6299E-03
             865             195     58.5472E-03     59.9231E-03
             862             195     58.5472E-03     59.9231E-03
             865             196     58.4422E-03     60.0188E-03
             868             196     58.4422E-03     60.0188E-03
             868             197     65.6324E-03     65.8897E-03
             871             197     65.6324E-03     65.8897E-03
             871             198     76.0876E-03     75.7066E-03
             874             198     76.0876E-03     75.7066E-03
             874             199     90.0256E-03     89.6526E-03
             877             199     90.0256E-03     89.6526E-03
             877             200     110.421E-03     108.032E-03
             880             200     110.421E-03     108.032E-03
             883             201     98.6777E-03     93.7535E-03
             880             201     98.6777E-03     93.7535E-03
             886             202     86.2692E-03     85.9698E-03
             883             202     86.2692E-03     85.9698E-03
             886             203     104.863E-03     107.384E-03
             889             203     104.863E-03     107.384E-03
             892             204     120.340E-03     120.215E-03
             889             204     120.340E-03     120.215E-03
             892             205     137.782E-03     137.889E-03
             895             205     137.782E-03     137.889E-03
             895             206     159.767E-03     155.374E-03
             898             206     159.767E-03     155.374E-03
             898             207     146.280E-03     135.098E-03
             901             207     146.280E-03     135.098E-03
             901             208     133.406E-03     130.432E-03
             904             208     133.406E-03     130.432E-03
             904             209     154.952E-03     157.943E-03
             907             209     154.952E-03     157.943E-03
             910             210     171.896E-03     171.282E-03
             907             210     171.896E-03     171.282E-03
             913             211     187.245E-03     185.888E-03
             910             211     187.245E-03     185.888E-03
             913             212     204.770E-03     204.476E-03
             916             212     204.770E-03     204.476E-03
             916             213     226.217E-03     219.421E-03
             919             213     226.217E-03     219.421E-03
             919             214     210.456E-03     193.016E-03
             922             214     210.456E-03     193.016E-03
             925             215     196.378E-03     190.943E-03
             922             215     196.378E-03     190.943E-03
             928             216     219.263E-03     222.605E-03
             925             216     219.263E-03     222.605E-03
             931             217     236.509E-03     235.434E-03
             928             217     236.509E-03     235.434E-03
             934             218     251.948E-03     250.145E-03
             931             218     251.948E-03     250.145E-03
             934             219     269.534E-03     269.568E-03
             937             219     269.534E-03     269.568E-03
             937             220     290.355E-03     281.384E-03
             940             220     290.355E-03     281.384E-03
             943             221     274.140E-03     251.848E-03
             940             221     274.140E-03     251.848E-03
             946             222     262.068E-03     255.076E-03
             943             222     262.068E-03     255.076E-03
             946             223     286.125E-03     290.565E-03
             949             223     286.125E-03     290.565E-03
             949             224     302.497E-03     301.775E-03
             952             224     302.497E-03     301.775E-03
             955             225     321.013E-03     322.872E-03
             952             225     321.013E-03     322.872E-03
             958             226     341.630E-03     331.383E-03
             955             226     341.630E-03     331.383E-03
             842             264     21.8834E-03     21.7184E-03
            2030             264     21.8834E-03     21.7184E-03
             841             264     21.8834E-03     21.7184E-03
            2029             264     21.8834E-03     21.7184E-03
             843             265     21.7969E-03     21.6394E-03
            2029             265     21.7969E-03     21.6394E-03
            2028             265     21.7969E-03     21.6394E-03
             842             265     21.7969E-03     21.6394E-03
             846             266     608.073E-06     619.580E-06
             964             266     608.073E-06     619.580E-06
             961             266     608.073E-06     619.580E-06
             843             266     608.073E-06     619.580E-06
             964             267     660.093E-06     675.606E-06
             846             267     660.093E-06     675.606E-06
             967             267     660.093E-06     675.606E-06
             849             267     660.093E-06     675.606E-06
             967             268     682.250E-06     689.999E-06
             852             268     682.250E-06     689.999E-06
             970             268     682.250E-06     689.999E-06
             849             268     682.250E-06     689.999E-06
             855             269     661.534E-06     661.234E-06
             973             269     661.534E-06     661.234E-06
             970             269     661.534E-06     661.234E-06
             852             269     661.534E-06     661.234E-06
             858             270     626.680E-06     624.359E-06
             855             270     626.680E-06     624.359E-06
             976             270     626.680E-06     624.359E-06
             973             270     626.680E-06     624.359E-06
             858             271     595.931E-06     594.725E-06
             857             271     595.931E-06     594.725E-06
             856             272     521.895E-06     524.610E-06
             857             272     521.895E-06     524.610E-06
             860             273     21.8905E-03     21.7255E-03
             962             273     21.8905E-03     21.7255E-03
             963             273     21.8905E-03     21.7255E-03
             859             273     21.8905E-03     21.7255E-03
             962             274     21.8005E-03     21.6430E-03
             861             274     21.8005E-03     21.6430E-03
             860             274     21.8005E-03     21.6430E-03
             961             274     21.8005E-03     21.6430E-03
             864             275     63.5386E-03     62.8446E-03
            2028             275     63.5386E-03     62.8446E-03
             861             275     63.5386E-03     62.8446E-03
            2031             275     63.5386E-03     62.8446E-03
             864             276     86.5457E-03     84.9698E-03
            2031             276     86.5457E-03     84.9698E-03
             867             276     86.5457E-03     84.9698E-03
            2034             276     86.5457E-03     84.9698E-03
            2034             277     91.2458E-03     89.3662E-03
            2037             277     91.2458E-03     89.3662E-03
             867             277     91.2458E-03     89.3662E-03
             870             277     91.2458E-03     89.3662E-03
            2040             278     94.4678E-03     93.4819E-03
             873             278     94.4678E-03     93.4819E-03
            2037             278     94.4678E-03     93.4819E-03
             870             278     94.4678E-03     93.4819E-03
             876             279     95.1768E-03     95.9313E-03
             873             279     95.1768E-03     95.9313E-03
            2043             279     95.1768E-03     95.9313E-03
            2040             279     95.1768E-03     95.9313E-03
             876             280     91.4676E-03     93.5616E-03
             879             280     91.4676E-03     93.5616E-03
            2043             280     91.4676E-03     93.5616E-03
            2046             280     91.4676E-03     93.5616E-03
            2049             281     83.2004E-03     84.8078E-03
             882             281     83.2004E-03     84.8078E-03
            2046             281     83.2004E-03     84.8078E-03
             879             281     83.2004E-03     84.8078E-03
             882             282     84.6530E-03     83.7649E-03
            2052             282     84.6530E-03     83.7649E-03
            2049             282     84.6530E-03     83.7649E-03
             885             282     84.6530E-03     83.7649E-03
             888             283     90.7549E-03     87.1040E-03
             885             283     90.7549E-03     87.1040E-03
            2052             283     90.7549E-03     87.1040E-03
            2055             283     90.7549E-03     87.1040E-03
            2055             284     92.7262E-03     89.0742E-03
             891             284     92.7262E-03     89.0742E-03
            2058             284     92.7262E-03     89.0742E-03
             888             284     92.7262E-03     89.0742E-03
             891             285     95.5857E-03     95.9876E-03
            2058             285     95.5857E-03     95.9876E-03
             894             285     95.5857E-03     95.9876E-03
            2061             285     95.5857E-03     95.9876E-03
             897             286     92.0145E-03     96.1272E-03
            2061             286     92.0145E-03     96.1272E-03
            2064             286     92.0145E-03     96.1272E-03
             894             286     92.0145E-03     96.1272E-03
            2064             287     81.6502E-03     84.8392E-03
            2067             287     81.6502E-03     84.8392E-03
             900             287     81.6502E-03     84.8392E-03
             897             287     81.6502E-03     84.8392E-03
             903             288     85.4263E-03     83.8590E-03
            2067             288     85.4263E-03     83.8590E-03
             900             288     85.4263E-03     83.8590E-03
            2070             288     85.4263E-03     83.8590E-03
             903             289     94.1468E-03     87.6241E-03
             906             289     94.1468E-03     87.6241E-03
            2070             289     94.1468E-03     87.6241E-03
            2073             289     94.1468E-03     87.6241E-03
             909             290     94.0489E-03     87.2649E-03
            2076             290     94.0489E-03     87.2649E-03
             906             290     94.0489E-03     87.2649E-03
            2073             290     94.0489E-03     87.2649E-03
            2079             291     96.6657E-03     94.2027E-03
            2076             291     96.6657E-03     94.2027E-03
             909             291     96.6657E-03     94.2027E-03
             912             291     96.6657E-03     94.2027E-03
             915             292     99.2321E-03     102.989E-03
            2082             292     99.2321E-03     102.989E-03
            2079             292     99.2321E-03     102.989E-03
             912             292     99.2321E-03     102.989E-03
            2082             293     94.8367E-03     102.432E-03
             918             293     94.8367E-03     102.432E-03
            2085             293     94.8367E-03     102.432E-03
             915             293     94.8367E-03     102.432E-03
             918             294     82.1024E-03     87.0514E-03
            2085             294     82.1024E-03     87.0514E-03
            2088             294     82.1024E-03     87.0514E-03
             921             294     82.1024E-03     87.0514E-03
            2088             295     88.9319E-03     86.4898E-03
            2091             295     88.9319E-03     86.4898E-03
             921             295     88.9319E-03     86.4898E-03
             924             295     88.9319E-03     86.4898E-03
             924             296     100.288E-03     91.2910E-03
            2094             296     100.288E-03     91.2910E-03
            2091             296     100.288E-03     91.2910E-03
             927             296     100.288E-03     91.2910E-03
             927             297     98.1507E-03     89.5007E-03
            2097             297     98.1507E-03     89.5007E-03
             930             297     98.1507E-03     89.5007E-03
            2094             297     98.1507E-03     89.5007E-03
             933             298     100.573E-03     97.9425E-03
            2100             298     100.573E-03     97.9425E-03
            2097             298     100.573E-03     97.9425E-03
             930             298     100.573E-03     97.9425E-03
             933             299     103.930E-03     109.341E-03
            2103             299     103.930E-03     109.341E-03
            2100             299     103.930E-03     109.341E-03
             936             299     103.930E-03     109.341E-03
             939             300     99.1646E-03     109.307E-03
            2103             300     99.1646E-03     109.307E-03
            2106             300     99.1646E-03     109.307E-03
             936             300     99.1646E-03     109.307E-03
            2106             301     84.6228E-03     90.5586E-03
             942             301     84.6228E-03     90.5586E-03
            2109             301     84.6228E-03     90.5586E-03
             939             301     84.6228E-03     90.5586E-03
            2112             302     95.2180E-03     91.9767E-03
             945             302     95.2180E-03     91.9767E-03
             942             302     95.2180E-03     91.9767E-03
            2109             302     95.2180E-03     91.9767E-03
            2112             303     108.329E-03     98.3538E-03
             945             303     108.329E-03     98.3538E-03
            2115             303     108.329E-03     98.3538E-03
             948             303     108.329E-03     98.3538E-03
             951             304     104.624E-03     97.2178E-03
            2115             304     104.624E-03     97.2178E-03
            2118             304     104.624E-03     97.2178E-03
             948             304     104.624E-03     97.2178E-03
            2121             305     108.234E-03     112.104E-03
             954             305     108.234E-03     112.104E-03
             951             305     108.234E-03     112.104E-03
            2118             305     108.234E-03     112.104E-03
            2124             306     102.885E-03     113.599E-03
             954             306     102.885E-03     113.599E-03
             957             306     102.885E-03     113.599E-03
            2121             306     102.885E-03     113.599E-03
            2124             307     87.3586E-03     93.1034E-03
             957             307     87.3586E-03     93.1034E-03
            2127             307     87.3586E-03     93.1034E-03
             960             307     87.3586E-03     93.1034E-03
             959             308     137.354E-03     133.514E-03
            2226             308     137.354E-03     133.514E-03
             960             308     137.354E-03     133.514E-03
            2227             308     137.354E-03     133.514E-03
            2226             309     259.731E-03     249.710E-03
             958             309     259.731E-03     249.710E-03
             959             309     259.731E-03     249.710E-03
            2225             309     259.731E-03     249.710E-03
             978             310     521.895E-06     524.610E-06
             977             310     521.895E-06     524.610E-06
             976             311     595.931E-06     594.725E-06
             977             311     595.931E-06     594.725E-06
            2128             312     127.308E-03     124.489E-03
            2127             312     127.308E-03     124.489E-03
             979             312     127.308E-03     124.489E-03
             980             312     127.308E-03     124.489E-03
             980             313     247.877E-03     238.934E-03
             981             313     247.877E-03     238.934E-03
            2129             313     247.877E-03     238.934E-03
            2128             313     247.877E-03     238.934E-03
             981             314     298.419E-03     289.071E-03
             984             314     298.419E-03     289.071E-03
             984             315     320.980E-03     316.792E-03
             987             315     320.980E-03     316.792E-03
             990             316     352.553E-03     361.088E-03
             987             316     352.553E-03     361.088E-03
             990             317     372.897E-03     364.680E-03
             993             317     372.897E-03     364.680E-03
            2838             318     312.957E-03     302.673E-03
            2839             318     312.957E-03     302.673E-03
             993             318     312.957E-03     302.673E-03
             992             318     312.957E-03     302.673E-03
            2837             319     179.485E-03     173.684E-03
             992             319     179.485E-03     173.684E-03
            2838             319     179.485E-03     173.684E-03
             991             319     179.485E-03     173.684E-03
             991             320     90.9723E-03     93.1454E-03
             988             320     90.9723E-03     93.1454E-03
            2236             320     90.9723E-03     93.1454E-03
            2239             320     90.9723E-03     93.1454E-03
            2233             321     109.057E-03     109.361E-03
             985             321     109.057E-03     109.361E-03
            2236             321     109.057E-03     109.361E-03
             988             321     109.057E-03     109.361E-03
             985             322     121.373E-03     115.615E-03
            2233             322     121.373E-03     115.615E-03
             982             322     121.373E-03     115.615E-03
            2230             322     121.373E-03     115.615E-03
             982             323     102.918E-03     98.7721E-03
            2230             323     102.918E-03     98.7721E-03
             979             323     102.918E-03     98.7721E-03
            2227             323     102.918E-03     98.7721E-03
            2237             389     370.518E-03     367.280E-03
            2234             389     370.518E-03     367.280E-03
            2234             390     352.400E-03     361.746E-03
            2231             390     352.400E-03     361.746E-03
            2228             391     324.014E-03     314.510E-03
            2231             391     324.014E-03     314.510E-03
            2225             392     308.444E-03     289.757E-03
            2228             392     308.444E-03     289.757E-03
            2842             393     357.648E-03     357.022E-03
            2839             393     357.648E-03     357.022E-03
            2845             394     343.531E-03     337.075E-03
            2842             394     343.531E-03     337.075E-03
            2848             395     349.610E-03     349.869E-03
            2845             395     349.610E-03     349.869E-03
            2851             396     281.227E-03     282.432E-03
            2848             396     281.227E-03     282.432E-03
            2133             420     350.640E-03     350.116E-03
            2130             420     350.640E-03     350.116E-03
            2136             421     337.182E-03     330.434E-03
            2133             421     337.182E-03     330.434E-03
            2136             422     342.732E-03     344.306E-03
            2139             422     342.732E-03     344.306E-03
            2142             423     276.111E-03     276.542E-03
            2139             423     276.111E-03     276.542E-03
            2130             432     305.425E-03     303.795E-03
            2237             432     305.425E-03     303.795E-03
            2238             432     305.425E-03     303.795E-03
            2131             432     305.425E-03     303.795E-03
            2131             433     173.656E-03     175.190E-03
            2132             433     173.656E-03     175.190E-03
            2239             433     173.656E-03     175.190E-03
            2238             433     173.656E-03     175.190E-03
            2837             434     197.136E-03     197.107E-03
            2840             434     197.136E-03     197.107E-03
            2135             434     197.136E-03     197.107E-03
            2132             434     197.136E-03     197.107E-03
            2843             435     201.902E-03     201.374E-03
            2840             435     201.902E-03     201.374E-03
            2135             435     201.902E-03     201.374E-03
            2138             435     201.902E-03     201.374E-03
            2843             436     189.595E-03     188.836E-03
            2846             436     189.595E-03     188.836E-03
            2141             436     189.595E-03     188.836E-03
            2138             436     189.595E-03     188.836E-03
            2141             437     216.899E-03     217.467E-03
            2846             437     216.899E-03     217.467E-03
            2849             437     216.899E-03     217.467E-03
            2144             437     216.899E-03     217.467E-03
            2143             438     217.850E-03     216.274E-03
            2144             438     217.850E-03     216.274E-03
            2883             438     217.850E-03     216.274E-03
            2884             438     217.850E-03     216.274E-03
            2882             439     251.776E-03     245.019E-03
            2883             439     251.776E-03     245.019E-03
            2142             439     251.776E-03     245.019E-03
            2143             439     251.776E-03     245.019E-03
            2882             444     281.291E-03     282.698E-03
            2885             444     281.291E-03     282.698E-03
            2888             445     221.870E-03     222.516E-03
            2885             445     221.870E-03     222.516E-03
            2888             446     233.427E-03     224.942E-03
            2891             446     233.427E-03     224.942E-03
            2894             447     254.385E-03     249.631E-03
            2891             447     254.385E-03     249.631E-03
            2897             448     207.733E-03     207.120E-03
            2894             448     207.733E-03     207.120E-03
            2897             449     175.807E-03     175.617E-03
            2900             449     175.807E-03     175.617E-03
            2900             450     152.513E-03     153.609E-03
            2903             450     152.513E-03     153.609E-03
            2906             451     137.148E-03     141.271E-03
            2903             451     137.148E-03     141.271E-03
            2906             452     139.244E-03     142.522E-03
            2909             452     139.244E-03     142.522E-03
            2909             453     122.292E-03     122.376E-03
            2912             453     122.292E-03     122.376E-03
            2240             468     219.960E-03     218.403E-03
            2849             468     219.960E-03     218.403E-03
            2850             468     219.960E-03     218.403E-03
            2241             468     219.960E-03     218.403E-03
            2242             469     255.664E-03     248.867E-03
            2851             469     255.664E-03     248.867E-03
            2241             469     255.664E-03     248.867E-03
            2850             469     255.664E-03     248.867E-03
            2242             470     286.207E-03     286.417E-03
            2245             470     286.207E-03     286.417E-03
            2245             471     225.059E-03     226.344E-03
            2248             471     225.059E-03     226.344E-03
            2251             472     236.046E-03     227.626E-03
            2248             472     236.046E-03     227.626E-03
            2254             473     256.922E-03     251.558E-03
            2251             473     256.922E-03     251.558E-03
            2254             474     209.702E-03     208.929E-03
            2257             474     209.702E-03     208.929E-03
            2257             475     177.468E-03     176.854E-03
            2260             475     177.468E-03     176.854E-03
            2260             476     153.626E-03     154.445E-03
            2263             476     153.626E-03     154.445E-03
            2266             477     137.631E-03     141.472E-03
            2263             477     137.631E-03     141.472E-03
            2266             478     138.685E-03     141.880E-03
            2269             478     138.685E-03     141.880E-03
            2269             479     121.701E-03     121.836E-03
            2272             479     121.701E-03     121.836E-03
            2820             480     50.8355E-03     50.4559E-03
            2271             480     50.8355E-03     50.4559E-03
            2821             480     50.8355E-03     50.4559E-03
            2272             480     50.8355E-03     50.4559E-03
            2271             481     50.6765E-03     50.3039E-03
            2820             481     50.6765E-03     50.3039E-03
            2819             481     50.6765E-03     50.3039E-03
            2270             481     50.6765E-03     50.3039E-03
            2270             482     149.800E-03     148.212E-03
            2914             482     149.800E-03     148.212E-03
            2267             482     149.800E-03     148.212E-03
            2911             482     149.800E-03     148.212E-03
            2267             483     204.501E-03     200.921E-03
            2264             483     204.501E-03     200.921E-03
            2908             483     204.501E-03     200.921E-03
            2911             483     204.501E-03     200.921E-03
            2908             484     215.423E-03     211.118E-03
            2261             484     215.423E-03     211.118E-03
            2264             484     215.423E-03     211.118E-03
            2905             484     215.423E-03     211.118E-03
            2905             485     223.151E-03     220.883E-03
            2261             485     223.151E-03     220.883E-03
            2902             485     223.151E-03     220.883E-03
            2258             485     223.151E-03     220.883E-03
            2902             486     224.686E-03     226.483E-03
            2258             486     224.686E-03     226.483E-03
            2255             486     224.686E-03     226.483E-03
            2899             486     224.686E-03     226.483E-03
            2899             487     215.618E-03     220.486E-03
            2252             487     215.618E-03     220.486E-03
            2255             487     215.618E-03     220.486E-03
            2896             487     215.618E-03     220.486E-03
            2893             488     196.364E-03     200.054E-03
            2896             488     196.364E-03     200.054E-03
            2249             488     196.364E-03     200.054E-03
            2252             488     196.364E-03     200.054E-03
            2890             489     203.189E-03     205.055E-03
            2893             489     203.189E-03     205.055E-03
            2249             489     203.189E-03     205.055E-03
            2246             489     203.189E-03     205.055E-03
            2243             490     208.575E-03     209.276E-03
            2246             490     208.575E-03     209.276E-03
            2887             490     208.575E-03     209.276E-03
            2890             490     208.575E-03     209.276E-03
            2887             491     186.751E-03     185.836E-03
            2240             491     186.751E-03     185.836E-03
            2243             491     186.751E-03     185.836E-03
            2884             491     186.751E-03     185.836E-03
            2824             562     663.233E-06     653.090E-06
            2821             562     663.233E-06     653.090E-06
            2824             563     529.028E-06     533.042E-06
            2827             563     529.028E-06     533.042E-06
            2827             564     447.543E-06     453.292E-06
            2830             564     447.543E-06     453.292E-06
            2833             565     411.978E-06     423.598E-06
            2830             565     411.978E-06     423.598E-06
            2836             566     433.707E-06     443.659E-06
            2833             566     433.707E-06     443.659E-06
            2913             587     50.8263E-03     50.4469E-03
            2912             587     50.8263E-03     50.4469E-03
            2747             587     50.8263E-03     50.4469E-03
            2746             587     50.8263E-03     50.4469E-03
            2914             588     50.6719E-03     50.2994E-03
            2748             588     50.6719E-03     50.2994E-03
            2913             588     50.6719E-03     50.2994E-03
            2747             588     50.6719E-03     50.2994E-03
            2748             589     607.908E-06     619.295E-06
            2822             589     607.908E-06     619.295E-06
            2751             589     607.908E-06     619.295E-06
            2819             589     607.908E-06     619.295E-06
            2751             590     659.643E-06     675.062E-06
            2754             590     659.643E-06     675.062E-06
            2825             590     659.643E-06     675.062E-06
            2822             590     659.643E-06     675.062E-06
            2825             591     681.859E-06     689.654E-06
            2828             591     681.859E-06     689.654E-06
            2754             591     681.859E-06     689.654E-06
            2757             591     681.859E-06     689.654E-06
            2828             592     661.256E-06     661.060E-06
            2760             592     661.256E-06     661.060E-06
            2831             592     661.256E-06     661.060E-06
            2757             592     661.256E-06     661.060E-06
            2831             593     626.600E-06     624.353E-06
            2760             593     626.600E-06     624.353E-06
            2834             593     626.600E-06     624.353E-06
            2763             593     626.600E-06     624.353E-06
            2762             594     596.002E-06     594.845E-06
            2763             594     596.002E-06     594.845E-06
            2762             595     521.890E-06     524.599E-06
            2761             595     521.890E-06     524.599E-06
            2758             596     433.707E-06     443.659E-06
            2761             596     433.707E-06     443.659E-06
            2758             597     411.978E-06     423.598E-06
            2755             597     411.978E-06     423.598E-06
            2752             598     447.543E-06     453.292E-06
            2755             598     447.543E-06     453.292E-06
            2752             599     529.028E-06     533.042E-06
            2749             599     529.028E-06     533.042E-06
            2746             600     663.233E-06     653.090E-06
            2749             600     663.233E-06     653.090E-06
            2836             605     521.890E-06     524.599E-06
            2835             605     521.890E-06     524.599E-06
            2834             606     596.002E-06     594.845E-06
            2835             606     596.002E-06     594.845E-06
             844            1357     649.116E-06     649.162E-06
             841            1357     649.116E-06     649.162E-06
             842            1357     649.116E-06     649.162E-06
             845            1357     649.116E-06     649.162E-06
             846            1358     620.597E-06     631.484E-06
             843            1358     620.597E-06     631.484E-06
             842            1358     620.597E-06     631.484E-06
             845            1358     620.597E-06     631.484E-06
             844            1359     581.553E-06     588.156E-06
             847            1359     581.553E-06     588.156E-06
             848            1359     581.553E-06     588.156E-06
             845            1359     581.553E-06     588.156E-06
             845            1360     646.521E-06     658.883E-06
             849            1360     646.521E-06     658.883E-06
             848            1360     646.521E-06     658.883E-06
             846            1360     646.521E-06     658.883E-06
             850            1361     524.969E-06     530.337E-06
             848            1361     524.969E-06     530.337E-06
             851            1361     524.969E-06     530.337E-06
             847            1361     524.969E-06     530.337E-06
             849            1362     642.008E-06     648.404E-06
             848            1362     642.008E-06     648.404E-06
             852            1362     642.008E-06     648.404E-06
             851            1362     642.008E-06     648.404E-06
             853            1363     508.175E-06     515.469E-06
             854            1363     508.175E-06     515.469E-06
             851            1363     508.175E-06     515.469E-06
             850            1363     508.175E-06     515.469E-06
             854            1364     632.934E-06     634.243E-06
             852            1364     632.934E-06     634.243E-06
             851            1364     632.934E-06     634.243E-06
             855            1364     632.934E-06     634.243E-06
             857            1365     515.520E-06     520.439E-06
             853            1365     515.520E-06     520.439E-06
             854            1365     515.520E-06     520.439E-06
             856            1365     515.520E-06     520.439E-06
             858            1366     612.066E-06     610.801E-06
             854            1366     612.066E-06     610.801E-06
             857            1366     612.066E-06     610.801E-06
             855            1366     612.066E-06     610.801E-06
             859            1367     56.7137E-03     56.3921E-03
             860            1367     56.7137E-03     56.3921E-03
             862            1367     56.7137E-03     56.3921E-03
             863            1367     56.7137E-03     56.3921E-03
             863            1368     62.7063E-03     61.9909E-03
             861            1368     62.7063E-03     61.9909E-03
             864            1368     62.7063E-03     61.9909E-03
             860            1368     62.7063E-03     61.9909E-03
             866            1369     70.4744E-03     70.4673E-03
             865            1369     70.4744E-03     70.4673E-03
             863            1369     70.4744E-03     70.4673E-03
             862            1369     70.4744E-03     70.4673E-03
             863            1370     84.4693E-03     82.9964E-03
             867            1370     84.4693E-03     82.9964E-03
             864            1370     84.4693E-03     82.9964E-03
             866            1370     84.4693E-03     82.9964E-03
             865            1371     71.2206E-03     71.5964E-03
             868            1371     71.2206E-03     71.5964E-03
             869            1371     71.2206E-03     71.5964E-03
             866            1371     71.2206E-03     71.5964E-03
             867            1372     87.6211E-03     86.2992E-03
             870            1372     87.6211E-03     86.2992E-03
             866            1372     87.6211E-03     86.2992E-03
             869            1372     87.6211E-03     86.2992E-03
             871            1373     74.8543E-03     75.1040E-03
             872            1373     74.8543E-03     75.1040E-03
             868            1373     74.8543E-03     75.1040E-03
             869            1373     74.8543E-03     75.1040E-03
             872            1374     89.3123E-03     88.9151E-03
             870            1374     89.3123E-03     88.9151E-03
             869            1374     89.3123E-03     88.9151E-03
             873            1374     89.3123E-03     88.9151E-03
             874            1375     81.5277E-03     81.3721E-03
             871            1375     81.5277E-03     81.3721E-03
             875            1375     81.5277E-03     81.3721E-03
             872            1375     81.5277E-03     81.3721E-03
             873            1376     91.1459E-03     91.5267E-03
             876            1376     91.1459E-03     91.5267E-03
             875            1376     91.1459E-03     91.5267E-03
             872            1376     91.1459E-03     91.5267E-03
             877            1377     91.6495E-03     91.7912E-03
             878            1377     91.6495E-03     91.7912E-03
             874            1377     91.6495E-03     91.7912E-03
             875            1377     91.6495E-03     91.7912E-03
             875            1378     92.4371E-03     93.8216E-03
             876            1378     92.4371E-03     93.8216E-03
             878            1378     92.4371E-03     93.8216E-03
             879            1378     92.4371E-03     93.8216E-03
             878            1379     101.707E-03     100.940E-03
             881            1379     101.707E-03     100.940E-03
             880            1379     101.707E-03     100.940E-03
             877            1379     101.707E-03     100.940E-03
             881            1380     88.1888E-03     89.3881E-03
             878            1380     88.1888E-03     89.3881E-03
             879            1380     88.1888E-03     89.3881E-03
             882            1380     88.1888E-03     89.3881E-03
             884            1381     94.8738E-03     91.0235E-03
             881            1381     94.8738E-03     91.0235E-03
             883            1381     94.8738E-03     91.0235E-03
             880            1381     94.8738E-03     91.0235E-03
             881            1382     87.9831E-03     86.1156E-03
             882            1382     87.9831E-03     86.1156E-03
             885            1382     87.9831E-03     86.1156E-03
             884            1382     87.9831E-03     86.1156E-03
             887            1383     91.0650E-03     89.0417E-03
             883            1383     91.0650E-03     89.0417E-03
             886            1383     91.0650E-03     89.0417E-03
             884            1383     91.0650E-03     89.0417E-03
             885            1384     93.4538E-03     89.7882E-03
             887            1384     93.4538E-03     89.7882E-03
             888            1384     93.4538E-03     89.7882E-03
             884            1384     93.4538E-03     89.7882E-03
             887            1385     102.292E-03     103.756E-03
             889            1385     102.292E-03     103.756E-03
             890            1385     102.292E-03     103.756E-03
             886            1385     102.292E-03     103.756E-03
             890            1386     96.4206E-03     94.8443E-03
             887            1386     96.4206E-03     94.8443E-03
             891            1386     96.4206E-03     94.8443E-03
             888            1386     96.4206E-03     94.8443E-03
             889            1387     112.072E-03     112.991E-03
             892            1387     112.072E-03     112.991E-03
             890            1387     112.072E-03     112.991E-03
             893            1387     112.072E-03     112.991E-03
             890            1388     99.9816E-03     101.172E-03
             894            1388     99.9816E-03     101.172E-03
             893            1388     99.9816E-03     101.172E-03
             891            1388     99.9816E-03     101.172E-03
             895            1389     124.827E-03     126.237E-03
             896            1389     124.827E-03     126.237E-03
             893            1389     124.827E-03     126.237E-03
             892            1389     124.827E-03     126.237E-03
             897            1390     102.265E-03     105.664E-03
             893            1390     102.265E-03     105.664E-03
             896            1390     102.265E-03     105.664E-03
             894            1390     102.265E-03     105.664E-03
             899            1391     135.502E-03     133.822E-03
             896            1391     135.502E-03     133.822E-03
             898            1391     135.502E-03     133.822E-03
             895            1391     135.502E-03     133.822E-03
             900            1392     96.8077E-03     98.8313E-03
             896            1392     96.8077E-03     98.8313E-03
             897            1392     96.8077E-03     98.8313E-03
             899            1392     96.8077E-03     98.8313E-03
             898            1393     127.715E-03     118.777E-03
             901            1393     127.715E-03     118.777E-03
             899            1393     127.715E-03     118.777E-03
             902            1393     127.715E-03     118.777E-03
             902            1394     97.6823E-03     93.4747E-03
             899            1394     97.6823E-03     93.4747E-03
             903            1394     97.6823E-03     93.4747E-03
             900            1394     97.6823E-03     93.4747E-03
             904            1395     124.413E-03     119.688E-03
             901            1395     124.413E-03     119.688E-03
             905            1395     124.413E-03     119.688E-03
             902            1395     124.413E-03     119.688E-03
             903            1396     105.195E-03     98.7449E-03
             906            1396     105.195E-03     98.7449E-03
             902            1396     105.195E-03     98.7449E-03
             905            1396     105.195E-03     98.7449E-03
             907            1397     138.143E-03     140.172E-03
             904            1397     138.143E-03     140.172E-03
             908            1397     138.143E-03     140.172E-03
             905            1397     138.143E-03     140.172E-03
             906            1398     108.210E-03     105.464E-03
             905            1398     108.210E-03     105.464E-03
             909            1398     108.210E-03     105.464E-03
             908            1398     108.210E-03     105.464E-03
             908            1399     149.692E-03     150.776E-03
             910            1399     149.692E-03     150.776E-03
             911            1399     149.692E-03     150.776E-03
             907            1399     149.692E-03     150.776E-03
             912            1400     112.707E-03     112.911E-03
             911            1400     112.707E-03     112.911E-03
             909            1400     112.707E-03     112.911E-03
             908            1400     112.707E-03     112.911E-03
             914            1401     160.947E-03     161.357E-03
             910            1401     160.947E-03     161.357E-03
             911            1401     160.947E-03     161.357E-03
             913            1401     160.947E-03     161.357E-03
             914            1402     117.676E-03     120.620E-03
             915            1402     117.676E-03     120.620E-03
             912            1402     117.676E-03     120.620E-03
             911            1402     117.676E-03     120.620E-03
             916            1403     174.706E-03     176.719E-03
             917            1403     174.706E-03     176.719E-03
             913            1403     174.706E-03     176.719E-03
             914            1403     174.706E-03     176.719E-03
             917            1404     120.503E-03     126.399E-03
             918            1404     120.503E-03     126.399E-03
             915            1404     120.503E-03     126.399E-03
             914            1404     120.503E-03     126.399E-03
             916            1405     184.322E-03     180.819E-03
             919            1405     184.322E-03     180.819E-03
             917            1405     184.322E-03     180.819E-03
             920            1405     184.322E-03     180.819E-03
             917            1406     113.112E-03     115.298E-03
             918            1406     113.112E-03     115.298E-03
             921            1406     113.112E-03     115.298E-03
             920            1406     113.112E-03     115.298E-03
             920            1407     174.243E-03     159.680E-03
             919            1407     174.243E-03     159.680E-03
             922            1407     174.243E-03     159.680E-03
             923            1407     174.243E-03     159.680E-03
             924            1408     114.320E-03     107.129E-03
             921            1408     114.320E-03     107.129E-03
             923            1408     114.320E-03     107.129E-03
             920            1408     114.320E-03     107.129E-03
             922            1409     171.230E-03     164.191E-03
             926            1409     171.230E-03     164.191E-03
             923            1409     171.230E-03     164.191E-03
             925            1409     171.230E-03     164.191E-03
             923            1410     124.025E-03     115.289E-03
             924            1410     124.025E-03     115.289E-03
             927            1410     124.025E-03     115.289E-03
             926            1410     124.025E-03     115.289E-03
             926            1411     186.685E-03     189.740E-03
             929            1411     186.685E-03     189.740E-03
             925            1411     186.685E-03     189.740E-03
             928            1411     186.685E-03     189.740E-03
             927            1412     127.175E-03     124.432E-03
             926            1412     127.175E-03     124.432E-03
             929            1412     127.175E-03     124.432E-03
             930            1412     127.175E-03     124.432E-03
             932            1413     198.863E-03     200.428E-03
             929            1413     198.863E-03     200.428E-03
             928            1413     198.863E-03     200.428E-03
             931            1413     198.863E-03     200.428E-03
             929            1414     132.101E-03     132.995E-03
             932            1414     132.101E-03     132.995E-03
             933            1414     132.101E-03     132.995E-03
             930            1414     132.101E-03     132.995E-03
             932            1415     210.486E-03     211.332E-03
             934            1415     210.486E-03     211.332E-03
             935            1415     210.486E-03     211.332E-03
             931            1415     210.486E-03     211.332E-03
             932            1416     137.803E-03     142.229E-03
             933            1416     137.803E-03     142.229E-03
             935            1416     137.803E-03     142.229E-03
             936            1416     137.803E-03     142.229E-03
             937            1417     224.557E-03     227.647E-03
             938            1417     224.557E-03     227.647E-03
             934            1417     224.557E-03     227.647E-03
             935            1417     224.557E-03     227.647E-03
             935            1418     140.736E-03     148.747E-03
             938            1418     140.736E-03     148.747E-03
             936            1418     140.736E-03     148.747E-03
             939            1418     140.736E-03     148.747E-03
             940            1419     233.035E-03     227.755E-03
             938            1419     233.035E-03     227.755E-03
             941            1419     233.035E-03     227.755E-03
             937            1419     233.035E-03     227.755E-03
             939            1420     131.666E-03     133.539E-03
             938            1420     131.666E-03     133.539E-03
             942            1420     131.666E-03     133.539E-03
             941            1420     131.666E-03     133.539E-03
             943            1421     221.817E-03     202.725E-03
             941            1421     221.817E-03     202.725E-03
             940            1421     221.817E-03     202.725E-03
             944            1421     221.817E-03     202.725E-03
             945            1422     133.762E-03     124.011E-03
             942            1422     133.762E-03     124.011E-03
             941            1422     133.762E-03     124.011E-03
             944            1422     133.762E-03     124.011E-03
             947            1423     221.614E-03     213.551E-03
             944            1423     221.614E-03     213.551E-03
             943            1423     221.614E-03     213.551E-03
             946            1423     221.614E-03     213.551E-03
             945            1424     146.087E-03     136.661E-03
             948            1424     146.087E-03     136.661E-03
             947            1424     146.087E-03     136.661E-03
             944            1424     146.087E-03     136.661E-03
             946            1425     238.760E-03     244.013E-03
             949            1425     238.760E-03     244.013E-03
             947            1425     238.760E-03     244.013E-03
             950            1425     238.760E-03     244.013E-03
             948            1426     149.676E-03     149.265E-03
             951            1426     149.676E-03     149.265E-03
             947            1426     149.676E-03     149.265E-03
             950            1426     149.676E-03     149.265E-03
             952            1427     250.320E-03     254.213E-03
             950            1427     250.320E-03     254.213E-03
             949            1427     250.320E-03     254.213E-03
             953            1427     250.320E-03     254.213E-03
             950            1428     155.118E-03     161.433E-03
             954            1428     155.118E-03     161.433E-03
             953            1428     155.118E-03     161.433E-03
             951            1428     155.118E-03     161.433E-03
             955            1429     264.751E-03     270.133E-03
             953            1429     264.751E-03     270.133E-03
             952            1429     264.751E-03     270.133E-03
             956            1429     264.751E-03     270.133E-03
             954            1430     157.682E-03     167.329E-03
             956            1430     157.682E-03     167.329E-03
             953            1430     157.682E-03     167.329E-03
             957            1430     157.682E-03     167.329E-03
             959            1431     272.344E-03     266.249E-03
             958            1431     272.344E-03     266.249E-03
             956            1431     272.344E-03     266.249E-03
             955            1431     272.344E-03     266.249E-03
             960            1432     147.383E-03     148.885E-03
             957            1432     147.383E-03     148.885E-03
             959            1432     147.383E-03     148.885E-03
             956            1432     147.383E-03     148.885E-03
             962            1433     620.597E-06     631.484E-06
             961            1433     620.597E-06     631.484E-06
             964            1433     620.597E-06     631.484E-06
             965            1433     620.597E-06     631.484E-06
             966            1434     649.116E-06     649.162E-06
             963            1434     649.116E-06     649.162E-06
             962            1434     649.116E-06     649.162E-06
             965            1434     649.116E-06     649.162E-06
             965            1435     646.521E-06     658.883E-06
             964            1435     646.521E-06     658.883E-06
             967            1435     646.521E-06     658.883E-06
             968            1435     646.521E-06     658.883E-06
             969            1436     581.553E-06     588.156E-06
             966            1436     581.553E-06     588.156E-06
             965            1436     581.553E-06     588.156E-06
             968            1436     581.553E-06     588.156E-06
             968            1437     642.008E-06     648.404E-06
             967            1437     642.008E-06     648.404E-06
             971            1437     642.008E-06     648.404E-06
             970            1437     642.008E-06     648.404E-06
             969            1438     524.969E-06     530.337E-06
             972            1438     524.969E-06     530.337E-06
             968            1438     524.969E-06     530.337E-06
             971            1438     524.969E-06     530.337E-06
             971            1439     632.934E-06     634.243E-06
             970            1439     632.934E-06     634.243E-06
             973            1439     632.934E-06     634.243E-06
             974            1439     632.934E-06     634.243E-06
             972            1440     508.175E-06     515.469E-06
             975            1440     508.175E-06     515.469E-06
             971            1440     508.175E-06     515.469E-06
             974            1440     508.175E-06     515.469E-06
             974            1441     612.066E-06     610.801E-06
             977            1441     612.066E-06     610.801E-06
             976            1441     612.066E-06     610.801E-06
             973            1441     612.066E-06     610.801E-06
             975            1442     515.520E-06     520.439E-06
             978            1442     515.520E-06     520.439E-06
             977            1442     515.520E-06     520.439E-06
             974            1442     515.520E-06     520.439E-06
             979            1443     145.419E-03     140.307E-03
             980            1443     145.419E-03     140.307E-03
             982            1443     145.419E-03     140.307E-03
             983            1443     145.419E-03     140.307E-03
             983            1444     244.540E-03     236.091E-03
             980            1444     244.540E-03     236.091E-03
             984            1444     244.540E-03     236.091E-03
             981            1444     244.540E-03     236.091E-03
             983            1445     165.736E-03     163.379E-03
             986            1445     165.736E-03     163.379E-03
             982            1445     165.736E-03     163.379E-03
             985            1445     165.736E-03     163.379E-03
             984            1446     266.217E-03     263.358E-03
             987            1446     266.217E-03     263.358E-03
             983            1446     266.217E-03     263.358E-03
             986            1446     266.217E-03     263.358E-03
             985            1447     168.349E-03     176.078E-03
             986            1447     168.349E-03     176.078E-03
             988            1447     168.349E-03     176.078E-03
             989            1447     168.349E-03     176.078E-03
             990            1448     290.267E-03     301.842E-03
             986            1448     290.267E-03     301.842E-03
             987            1448     290.267E-03     301.842E-03
             989            1448     290.267E-03     301.842E-03
             988            1449     156.600E-03     156.339E-03
             992            1449     156.600E-03     156.339E-03
             991            1449     156.600E-03     156.339E-03
             989            1449     156.600E-03     156.339E-03
             992            1450     296.665E-03     293.075E-03
             990            1450     296.665E-03     293.075E-03
             993            1450     296.665E-03     293.075E-03
             989            1450     296.665E-03     293.075E-03
            2032            2310     62.8052E-03     62.0290E-03
            2029            2310     62.8052E-03     62.0290E-03
            2028            2310     62.8052E-03     62.0290E-03
            2031            2310     62.8052E-03     62.0290E-03
            2030            2311     57.0453E-03     56.6300E-03
            2033            2311     57.0453E-03     56.6300E-03
            2029            2311     57.0453E-03     56.6300E-03
            2032            2311     57.0453E-03     56.6300E-03
            2031            2312     84.6266E-03     82.9823E-03
            2034            2312     84.6266E-03     82.9823E-03
            2035            2312     84.6266E-03     82.9823E-03
            2032            2312     84.6266E-03     82.9823E-03
            2032            2313     70.8433E-03     70.7202E-03
            2033            2313     70.8433E-03     70.7202E-03
            2036            2313     70.8433E-03     70.7202E-03
            2035            2313     70.8433E-03     70.7202E-03
            2038            2314     87.5667E-03     86.1812E-03
            2035            2314     87.5667E-03     86.1812E-03
            2037            2314     87.5667E-03     86.1812E-03
            2034            2314     87.5667E-03     86.1812E-03
            2038            2315     70.9672E-03     71.4500E-03
            2036            2315     70.9672E-03     71.4500E-03
            2035            2315     70.9672E-03     71.4500E-03
            2039            2315     70.9672E-03     71.4500E-03
            2041            2316     88.9594E-03     88.7474E-03
            2040            2316     88.9594E-03     88.7474E-03
            2037            2316     88.9594E-03     88.7474E-03
            2038            2316     88.9594E-03     88.7474E-03
            2039            2317     74.1342E-03     74.6225E-03
            2038            2317     74.1342E-03     74.6225E-03
            2041            2317     74.1342E-03     74.6225E-03
            2042            2317     74.1342E-03     74.6225E-03
            2043            2318     90.6038E-03     91.1787E-03
            2041            2318     90.6038E-03     91.1787E-03
            2040            2318     90.6038E-03     91.1787E-03
            2044            2318     90.6038E-03     91.1787E-03
            2041            2319     80.4653E-03     80.6039E-03
            2042            2319     80.4653E-03     80.6039E-03
            2044            2319     80.4653E-03     80.6039E-03
            2045            2319     80.4653E-03     80.6039E-03
            2047            2320     91.8132E-03     93.2495E-03
            2046            2320     91.8132E-03     93.2495E-03
            2044            2320     91.8132E-03     93.2495E-03
            2043            2320     91.8132E-03     93.2495E-03
            2048            2321     90.3659E-03     90.6380E-03
            2045            2321     90.3659E-03     90.6380E-03
            2044            2321     90.3659E-03     90.6380E-03
            2047            2321     90.3659E-03     90.6380E-03
            2047            2322     87.4338E-03     88.7863E-03
            2050            2322     87.4338E-03     88.7863E-03
            2049            2322     87.4338E-03     88.7863E-03
            2046            2322     87.4338E-03     88.7863E-03
            2048            2323     100.117E-03     99.6775E-03
            2050            2323     100.117E-03     99.6775E-03
            2051            2323     100.117E-03     99.6775E-03
            2047            2323     100.117E-03     99.6775E-03
            2050            2324     87.1987E-03     85.3693E-03
            2053            2324     87.1987E-03     85.3693E-03
            2049            2324     87.1987E-03     85.3693E-03
            2052            2324     87.1987E-03     85.3693E-03
            2050            2325     93.3002E-03     89.3993E-03
            2054            2325     93.3002E-03     89.3993E-03
            2051            2325     93.3002E-03     89.3993E-03
            2053            2325     93.3002E-03     89.3993E-03
            2052            2326     92.4791E-03     88.4836E-03
            2053            2326     92.4791E-03     88.4836E-03
            2056            2326     92.4791E-03     88.4836E-03
            2055            2326     92.4791E-03     88.4836E-03
            2054            2327     89.0125E-03     86.5984E-03
            2053            2327     89.0125E-03     86.5984E-03
            2056            2327     89.0125E-03     86.5984E-03
            2057            2327     89.0125E-03     86.5984E-03
            2058            2328     94.8394E-03     93.1116E-03
            2059            2328     94.8394E-03     93.1116E-03
            2055            2328     94.8394E-03     93.1116E-03
            2056            2328     94.8394E-03     93.1116E-03
            2057            2329     99.2162E-03     100.763E-03
            2060            2329     99.2162E-03     100.763E-03
            2059            2329     99.2162E-03     100.763E-03
            2056            2329     99.2162E-03     100.763E-03
            2061            2330     97.8760E-03     99.1415E-03
            2062            2330     97.8760E-03     99.1415E-03
            2058            2330     97.8760E-03     99.1415E-03
            2059            2330     97.8760E-03     99.1415E-03
            2063            2331     108.505E-03     109.644E-03
            2059            2331     108.505E-03     109.644E-03
            2062            2331     108.505E-03     109.644E-03
            2060            2331     108.505E-03     109.644E-03
            2062            2332     99.9130E-03     103.424E-03
            2061            2332     99.9130E-03     103.424E-03
            2065            2332     99.9130E-03     103.424E-03
            2064            2332     99.9130E-03     103.424E-03
            2062            2333     120.936E-03     122.508E-03
            2066            2333     120.936E-03     122.508E-03
            2063            2333     120.936E-03     122.508E-03
            2065            2333     120.936E-03     122.508E-03
            2065            2334     94.2209E-03     96.7223E-03
            2068            2334     94.2209E-03     96.7223E-03
            2064            2334     94.2209E-03     96.7223E-03
            2067            2334     94.2209E-03     96.7223E-03
            2069            2335     131.214E-03     130.129E-03
            2065            2335     131.214E-03     130.129E-03
            2066            2335     131.214E-03     130.129E-03
            2068            2335     131.214E-03     130.129E-03
            2068            2336     95.1865E-03     91.2331E-03
            2071            2336     95.1865E-03     91.2331E-03
            2067            2336     95.1865E-03     91.2331E-03
            2070            2336     95.1865E-03     91.2331E-03
            2072            2337     123.375E-03     114.575E-03
            2068            2337     123.375E-03     114.575E-03
            2069            2337     123.375E-03     114.575E-03
            2071            2337     123.375E-03     114.575E-03
            2074            2338     102.467E-03     95.5990E-03
            2073            2338     102.467E-03     95.5990E-03
            2070            2338     102.467E-03     95.5990E-03
            2071            2338     102.467E-03     95.5990E-03
            2071            2339     119.544E-03     114.326E-03
            2074            2339     119.544E-03     114.326E-03
            2075            2339     119.544E-03     114.326E-03
            2072            2339     119.544E-03     114.326E-03
            2074            2340     104.612E-03     101.491E-03
            2076            2340     104.612E-03     101.491E-03
            2077            2340     104.612E-03     101.491E-03
            2073            2340     104.612E-03     101.491E-03
            2078            2341     132.250E-03     134.310E-03
            2075            2341     132.250E-03     134.310E-03
            2077            2341     132.250E-03     134.310E-03
            2074            2341     132.250E-03     134.310E-03
            2080            2342     108.517E-03     108.732E-03
            2076            2342     108.517E-03     108.732E-03
            2077            2342     108.517E-03     108.732E-03
            2079            2342     108.517E-03     108.732E-03
            2077            2343     143.370E-03     144.621E-03
            2078            2343     143.370E-03     144.621E-03
            2081            2343     143.370E-03     144.621E-03
            2080            2343     143.370E-03     144.621E-03
            2082            2344     113.101E-03     116.180E-03
            2079            2344     113.101E-03     116.180E-03
            2080            2344     113.101E-03     116.180E-03
            2083            2344     113.101E-03     116.180E-03
            2084            2345     154.292E-03     154.968E-03
            2081            2345     154.292E-03     154.968E-03
            2083            2345     154.292E-03     154.968E-03
            2080            2345     154.292E-03     154.968E-03
            2086            2346     115.729E-03     121.869E-03
            2085            2346     115.729E-03     121.869E-03
            2082            2346     115.729E-03     121.869E-03
            2083            2346     115.729E-03     121.869E-03
            2087            2347     167.837E-03     170.015E-03
            2086            2347     167.837E-03     170.015E-03
            2083            2347     167.837E-03     170.015E-03
            2084            2347     167.837E-03     170.015E-03
            2089            2348     108.092E-03     111.055E-03
            2085            2348     108.092E-03     111.055E-03
            2086            2348     108.092E-03     111.055E-03
            2088            2348     108.092E-03     111.055E-03
            2086            2349     177.081E-03     174.347E-03
            2087            2349     177.081E-03     174.347E-03
            2090            2349     177.081E-03     174.347E-03
            2089            2349     177.081E-03     174.347E-03
            2092            2350     109.508E-03     102.750E-03
            2089            2350     109.508E-03     102.750E-03
            2091            2350     109.508E-03     102.750E-03
            2088            2350     109.508E-03     102.750E-03
            2092            2351     166.869E-03     152.583E-03
            2093            2351     166.869E-03     152.583E-03
            2090            2351     166.869E-03     152.583E-03
            2089            2351     166.869E-03     152.583E-03
            2092            2352     118.895E-03     109.640E-03
            2094            2352     118.895E-03     109.640E-03
            2095            2352     118.895E-03     109.640E-03
            2091            2352     118.895E-03     109.640E-03
            2095            2353     163.159E-03     155.621E-03
            2096            2353     163.159E-03     155.621E-03
            2093            2353     163.159E-03     155.621E-03
            2092            2353     163.159E-03     155.621E-03
            2094            2354     120.833E-03     117.530E-03
            2095            2354     120.833E-03     117.530E-03
            2098            2354     120.833E-03     117.530E-03
            2097            2354     120.833E-03     117.530E-03
            2095            2355     177.552E-03     180.643E-03
            2098            2355     177.552E-03     180.643E-03
            2099            2355     177.552E-03     180.643E-03
            2096            2355     177.552E-03     180.643E-03
            2098            2356     125.094E-03     125.880E-03
            2101            2356     125.094E-03     125.880E-03
            2100            2356     125.094E-03     125.880E-03
            2097            2356     125.094E-03     125.880E-03
            2099            2357     189.359E-03     191.117E-03
            2101            2357     189.359E-03     191.117E-03
            2098            2357     189.359E-03     191.117E-03
            2102            2357     189.359E-03     191.117E-03
            2100            2358     130.406E-03     134.976E-03
            2104            2358     130.406E-03     134.976E-03
            2103            2358     130.406E-03     134.976E-03
            2101            2358     130.406E-03     134.976E-03
            2102            2359     200.684E-03     201.821E-03
            2101            2359     200.684E-03     201.821E-03
            2105            2359     200.684E-03     201.821E-03
            2104            2359     200.684E-03     201.821E-03
            2107            2360     133.139E-03     141.567E-03
            2103            2360     133.139E-03     141.567E-03
            2104            2360     133.139E-03     141.567E-03
            2106            2360     133.139E-03     141.567E-03
            2107            2361     214.564E-03     217.863E-03
            2108            2361     214.564E-03     217.863E-03
            2105            2361     214.564E-03     217.863E-03
            2104            2361     214.564E-03     217.863E-03
            2109            2362     123.797E-03     126.780E-03
            2106            2362     123.797E-03     126.780E-03
            2107            2362     123.797E-03     126.780E-03
            2110            2362     123.797E-03     126.780E-03
            2111            2363     222.710E-03     218.347E-03
            2107            2363     222.710E-03     218.347E-03
            2110            2363     222.710E-03     218.347E-03
            2108            2363     222.710E-03     218.347E-03
            2109            2364     126.368E-03     117.218E-03
            2113            2364     126.368E-03     117.218E-03
            2110            2364     126.368E-03     117.218E-03
            2112            2364     126.368E-03     117.218E-03
            2111            2365     211.478E-03     192.781E-03
            2113            2365     211.478E-03     192.781E-03
            2110            2365     211.478E-03     192.781E-03
            2114            2365     211.478E-03     192.781E-03
            2112            2366     138.477E-03     128.419E-03
            2116            2366     138.477E-03     128.419E-03
            2113            2366     138.477E-03     128.419E-03
            2115            2366     138.477E-03     128.419E-03
            2117            2367     210.565E-03     202.044E-03
            2116            2367     210.565E-03     202.044E-03
            2114            2367     210.565E-03     202.044E-03
            2113            2367     210.565E-03     202.044E-03
            2115            2368     140.493E-03     139.442E-03
            2116            2368     140.493E-03     139.442E-03
            2119            2368     140.493E-03     139.442E-03
            2118            2368     140.493E-03     139.442E-03
            2117            2369     226.599E-03     231.921E-03
            2116            2369     226.599E-03     231.921E-03
            2119            2369     226.599E-03     231.921E-03
            2120            2369     226.599E-03     231.921E-03
            2118            2370     145.065E-03     151.200E-03
            2119            2370     145.065E-03     151.200E-03
            2121            2370     145.065E-03     151.200E-03
            2122            2370     145.065E-03     151.200E-03
            2119            2371     237.827E-03     241.949E-03
            2123            2371     237.827E-03     241.949E-03
            2122            2371     237.827E-03     241.949E-03
            2120            2371     237.827E-03     241.949E-03
            2124            2372     147.368E-03     157.477E-03
            2122            2372     147.368E-03     157.477E-03
            2121            2372     147.368E-03     157.477E-03
            2125            2372     147.368E-03     157.477E-03
            2125            2373     251.947E-03     257.582E-03
            2122            2373     251.947E-03     257.582E-03
            2123            2373     251.947E-03     257.582E-03
            2126            2373     251.947E-03     257.582E-03
            2125            2374     136.715E-03     139.618E-03
            2124            2374     136.715E-03     139.618E-03
            2127            2374     136.715E-03     139.618E-03
            2128            2374     136.715E-03     139.618E-03
            2128            2375     259.207E-03     254.159E-03
            2126            2375     259.207E-03     254.159E-03
            2125            2375     259.207E-03     254.159E-03
            2129            2375     259.207E-03     254.159E-03
            2134            2376     311.376E-03     311.060E-03
            2133            2376     311.376E-03     311.060E-03
            2130            2376     311.376E-03     311.060E-03
            2131            2376     311.376E-03     311.060E-03
            2132            2377     233.954E-03     233.961E-03
            2134            2377     233.954E-03     233.961E-03
            2131            2377     233.954E-03     233.961E-03
            2135            2377     233.954E-03     233.961E-03
            2137            2378     301.050E-03     298.660E-03
            2136            2378     301.050E-03     298.660E-03
            2133            2378     301.050E-03     298.660E-03
            2134            2378     301.050E-03     298.660E-03
            2134            2379     232.919E-03     233.629E-03
            2135            2379     232.919E-03     233.629E-03
            2138            2379     232.919E-03     233.629E-03
            2137            2379     232.919E-03     233.629E-03
            2136            2380     298.422E-03     302.643E-03
            2139            2380     298.422E-03     302.643E-03
            2140            2380     298.422E-03     302.643E-03
            2137            2380     298.422E-03     302.643E-03
            2137            2381     221.336E-03     224.508E-03
            2140            2381     221.336E-03     224.508E-03
            2141            2381     221.336E-03     224.508E-03
            2138            2381     221.336E-03     224.508E-03
            2140            2382     267.855E-03     267.113E-03
            2143            2382     267.855E-03     267.113E-03
            2142            2382     267.855E-03     267.113E-03
            2139            2382     267.855E-03     267.113E-03
            2143            2383     237.889E-03     237.163E-03
            2144            2383     237.889E-03     237.163E-03
            2141            2383     237.889E-03     237.163E-03
            2140            2383     237.889E-03     237.163E-03
            2225            2440     253.880E-03     237.282E-03
            2226            2440     253.880E-03     237.282E-03
            2228            2440     253.880E-03     237.282E-03
            2229            2440     253.880E-03     237.282E-03
            2230            2441     152.488E-03     142.424E-03
            2227            2441     152.488E-03     142.424E-03
            2226            2441     152.488E-03     142.424E-03
            2229            2441     152.488E-03     142.424E-03
            2232            2442     270.181E-03     260.036E-03
            2229            2442     270.181E-03     260.036E-03
            2231            2442     270.181E-03     260.036E-03
            2228            2442     270.181E-03     260.036E-03
            2232            2443     169.539E-03     159.979E-03
            2233            2443     169.539E-03     159.979E-03
            2230            2443     169.539E-03     159.979E-03
            2229            2443     169.539E-03     159.979E-03
            2234            2444     290.248E-03     302.366E-03
            2231            2444     290.248E-03     302.366E-03
            2235            2444     290.248E-03     302.366E-03
            2232            2444     290.248E-03     302.366E-03
            2233            2445     168.747E-03     176.075E-03
            2235            2445     168.747E-03     176.075E-03
            2236            2445     168.747E-03     176.075E-03
            2232            2445     168.747E-03     176.075E-03
            2234            2446     293.249E-03     296.700E-03
            2237            2446     293.249E-03     296.700E-03
            2238            2446     293.249E-03     296.700E-03
            2235            2446     293.249E-03     296.700E-03
            2235            2447     152.579E-03     160.602E-03
            2238            2447     152.579E-03     160.602E-03
            2239            2447     152.579E-03     160.602E-03
            2236            2447     152.579E-03     160.602E-03
            2244            2448     210.619E-03     212.136E-03
            2240            2448     210.619E-03     212.136E-03
            2243            2448     210.619E-03     212.136E-03
            2241            2448     210.619E-03     212.136E-03
            2242            2449     260.051E-03     262.220E-03
            2241            2449     260.051E-03     262.220E-03
            2244            2449     260.051E-03     262.220E-03
            2245            2449     260.051E-03     262.220E-03
            2243            2450     224.126E-03     223.751E-03
            2247            2450     224.126E-03     223.751E-03
            2246            2450     224.126E-03     223.751E-03
            2244            2450     224.126E-03     223.751E-03
            2247            2451     232.167E-03     232.046E-03
            2248            2451     232.167E-03     232.046E-03
            2245            2451     232.167E-03     232.046E-03
            2244            2451     232.167E-03     232.046E-03
            2250            2452     211.437E-03     210.687E-03
            2247            2452     211.437E-03     210.687E-03
            2249            2452     211.437E-03     210.687E-03
            2246            2452     211.437E-03     210.687E-03
            2250            2453     227.714E-03     221.804E-03
            2247            2453     227.714E-03     221.804E-03
            2251            2453     227.714E-03     221.804E-03
            2248            2453     227.714E-03     221.804E-03
            2252            2454     207.228E-03     210.108E-03
            2253            2454     207.228E-03     210.108E-03
            2249            2454     207.228E-03     210.108E-03
            2250            2454     207.228E-03     210.108E-03
            2250            2455     237.393E-03     235.787E-03
            2251            2455     237.393E-03     235.787E-03
            2254            2455     237.393E-03     235.787E-03
            2253            2455     237.393E-03     235.787E-03
            2255            2456     217.415E-03     220.692E-03
            2253            2456     217.415E-03     220.692E-03
            2256            2456     217.415E-03     220.692E-03
            2252            2456     217.415E-03     220.692E-03
            2253            2457     214.376E-03     214.821E-03
            2254            2457     214.376E-03     214.821E-03
            2256            2457     214.376E-03     214.821E-03
            2257            2457     214.376E-03     214.821E-03
            2258            2458     214.797E-03     215.833E-03
            2255            2458     214.797E-03     215.833E-03
            2259            2458     214.797E-03     215.833E-03
            2256            2458     214.797E-03     215.833E-03
            2259            2459     191.097E-03     190.967E-03
            2257            2459     191.097E-03     190.967E-03
            2260            2459     191.097E-03     190.967E-03
            2256            2459     191.097E-03     190.967E-03
            2261            2460     210.801E-03     209.989E-03
            2258            2460     210.801E-03     209.989E-03
            2259            2460     210.801E-03     209.989E-03
            2262            2460     210.801E-03     209.989E-03
            2263            2461     175.989E-03     176.752E-03
            2259            2461     175.989E-03     176.752E-03
            2260            2461     175.989E-03     176.752E-03
            2262            2461     175.989E-03     176.752E-03
            2264            2462     207.032E-03     203.946E-03
            2262            2462     207.032E-03     203.946E-03
            2261            2462     207.032E-03     203.946E-03
            2265            2462     207.032E-03     203.946E-03
            2263            2463     168.138E-03     169.086E-03
            2265            2463     168.138E-03     169.086E-03
            2262            2463     168.138E-03     169.086E-03
            2266            2463     168.138E-03     169.086E-03
            2264            2464     199.747E-03     196.282E-03
            2268            2464     199.747E-03     196.282E-03
            2265            2464     199.747E-03     196.282E-03
            2267            2464     199.747E-03     196.282E-03
            2265            2465     166.843E-03     166.754E-03
            2266            2465     166.843E-03     166.754E-03
            2268            2465     166.843E-03     166.754E-03
            2269            2465     166.843E-03     166.754E-03
            2271            2466     147.859E-03     146.186E-03
            2267            2466     147.859E-03     146.186E-03
            2270            2466     147.859E-03     146.186E-03
            2268            2466     147.859E-03     146.186E-03
            2269            2467     133.810E-03     133.009E-03
            2268            2467     133.810E-03     133.009E-03
            2271            2467     133.810E-03     133.009E-03
            2272            2467     133.810E-03     133.009E-03
            2750            2844     647.833E-06     647.903E-06
            2747            2844     647.833E-06     647.903E-06
            2749            2844     647.833E-06     647.903E-06
            2746            2844     647.833E-06     647.903E-06
            2751            2845     620.170E-06     631.006E-06
            2748            2845     620.170E-06     631.006E-06
            2747            2845     620.170E-06     631.006E-06
            2750            2845     620.170E-06     631.006E-06
            2749            2846     580.822E-06     587.437E-06
            2750            2846     580.822E-06     587.437E-06
            2752            2846     580.822E-06     587.437E-06
            2753            2846     580.822E-06     587.437E-06
            2750            2847     646.129E-06     658.447E-06
            2753            2847     646.129E-06     658.447E-06
            2754            2847     646.129E-06     658.447E-06
            2751            2847     646.129E-06     658.447E-06
            2753            2848     524.704E-06     530.076E-06
            2755            2848     524.704E-06     530.076E-06
            2752            2848     524.704E-06     530.076E-06
            2756            2848     524.704E-06     530.076E-06
            2754            2849     641.862E-06     648.258E-06
            2757            2849     641.862E-06     648.258E-06
            2753            2849     641.862E-06     648.258E-06
            2756            2849     641.862E-06     648.258E-06
            2756            2850     508.224E-06     515.487E-06
            2759            2850     508.224E-06     515.487E-06
            2758            2850     508.224E-06     515.487E-06
            2755            2850     508.224E-06     515.487E-06
            2757            2851     632.863E-06     634.218E-06
            2759            2851     632.863E-06     634.218E-06
            2756            2851     632.863E-06     634.218E-06
            2760            2851     632.863E-06     634.218E-06
            2759            2852     515.614E-06     520.517E-06
            2762            2852     515.614E-06     520.517E-06
            2761            2852     515.614E-06     520.517E-06
            2758            2852     515.614E-06     520.517E-06
            2759            2853     612.061E-06     610.864E-06
            2760            2853     612.061E-06     610.864E-06
            2762            2853     612.061E-06     610.864E-06
            2763            2853     612.061E-06     610.864E-06
            2823            2894     620.170E-06     631.006E-06
            2820            2894     620.170E-06     631.006E-06
            2819            2894     620.170E-06     631.006E-06
            2822            2894     620.170E-06     631.006E-06
            2823            2895     647.833E-06     647.903E-06
            2821            2895     647.833E-06     647.903E-06
            2820            2895     647.833E-06     647.903E-06
            2824            2895     647.833E-06     647.903E-06
            2826            2896     646.129E-06     658.447E-06
            2823            2896     646.129E-06     658.447E-06
            2825            2896     646.129E-06     658.447E-06
            2822            2896     646.129E-06     658.447E-06
            2826            2897     580.822E-06     587.437E-06
            2824            2897     580.822E-06     587.437E-06
            2823            2897     580.822E-06     587.437E-06
            2827            2897     580.822E-06     587.437E-06
            2825            2898     641.862E-06     648.258E-06
            2828            2898     641.862E-06     648.258E-06
            2826            2898     641.862E-06     648.258E-06
            2829            2898     641.862E-06     648.258E-06
            2826            2899     524.704E-06     530.076E-06
            2829            2899     524.704E-06     530.076E-06
            2830            2899     524.704E-06     530.076E-06
            2827            2899     524.704E-06     530.076E-06
            2832            2900     632.863E-06     634.218E-06
            2831            2900     632.863E-06     634.218E-06
            2829            2900     632.863E-06     634.218E-06
            2828            2900     632.863E-06     634.218E-06
            2832            2901     508.224E-06     515.487E-06
            2833            2901     508.224E-06     515.487E-06
            2829            2901     508.224E-06     515.487E-06
            2830            2901     508.224E-06     515.487E-06
            2834            2902     612.061E-06     610.864E-06
            2835            2902     612.061E-06     610.864E-06
            2832            2902     612.061E-06     610.864E-06
            2831            2902     612.061E-06     610.864E-06
            2836            2903     515.614E-06     520.517E-06
            2835            2903     515.614E-06     520.517E-06
            2832            2903     515.614E-06     520.517E-06
            2833            2903     515.614E-06     520.517E-06
            2837            2904     237.951E-03     237.731E-03
            2840            2904     237.951E-03     237.731E-03
            2838            2904     237.951E-03     237.731E-03
            2841            2904     237.951E-03     237.731E-03
            2842            2905     317.537E-03     317.094E-03
            2841            2905     317.537E-03     317.094E-03
            2838            2905     317.537E-03     317.094E-03
            2839            2905     317.537E-03     317.094E-03
            2844            2906     236.256E-03     237.075E-03
            2840            2906     236.256E-03     237.075E-03
            2843            2906     236.256E-03     237.075E-03
            2841            2906     236.256E-03     237.075E-03
            2844            2907     306.580E-03     304.424E-03
            2845            2907     306.580E-03     304.424E-03
            2841            2907     306.580E-03     304.424E-03
            2842            2907     306.580E-03     304.424E-03
            2844            2908     224.861E-03     227.445E-03
            2846            2908     224.861E-03     227.445E-03
            2843            2908     224.861E-03     227.445E-03
            2847            2908     224.861E-03     227.445E-03
            2844            2909     304.352E-03     307.562E-03
            2845            2909     304.352E-03     307.562E-03
            2847            2909     304.352E-03     307.562E-03
            2848            2909     304.352E-03     307.562E-03
            2846            2910     240.249E-03     240.089E-03
            2847            2910     240.249E-03     240.089E-03
            2849            2910     240.249E-03     240.089E-03
            2850            2910     240.249E-03     240.089E-03
            2847            2911     272.053E-03     272.160E-03
            2848            2911     272.053E-03     272.160E-03
            2851            2911     272.053E-03     272.160E-03
            2850            2911     272.053E-03     272.160E-03
            2882            2932     256.051E-03     259.068E-03
            2886            2932     256.051E-03     259.068E-03
            2885            2932     256.051E-03     259.068E-03
            2883            2932     256.051E-03     259.068E-03
            2883            2933     208.485E-03     210.432E-03
            2884            2933     208.485E-03     210.432E-03
            2886            2933     208.485E-03     210.432E-03
            2887            2933     208.485E-03     210.432E-03
            2885            2934     229.661E-03     228.847E-03
            2888            2934     229.661E-03     228.847E-03
            2889            2934     229.661E-03     228.847E-03
            2886            2934     229.661E-03     228.847E-03
            2887            2935     222.812E-03     221.988E-03
            2886            2935     222.812E-03     221.988E-03
            2889            2935     222.812E-03     221.988E-03
            2890            2935     222.812E-03     221.988E-03
            2889            2936     225.745E-03     219.632E-03
            2888            2936     225.745E-03     219.632E-03
            2892            2936     225.745E-03     219.632E-03
            2891            2936     225.745E-03     219.632E-03
            2892            2937     210.473E-03     209.520E-03
            2893            2937     210.473E-03     209.520E-03
            2890            2937     210.473E-03     209.520E-03
            2889            2937     210.473E-03     209.520E-03
            2891            2938     235.422E-03     234.235E-03
            2892            2938     235.422E-03     234.235E-03
            2894            2938     235.422E-03     234.235E-03
            2895            2938     235.422E-03     234.235E-03
            2893            2939     206.298E-03     209.374E-03
            2895            2939     206.298E-03     209.374E-03
            2896            2939     206.298E-03     209.374E-03
            2892            2939     206.298E-03     209.374E-03
            2894            2940     212.786E-03     213.400E-03
            2897            2940     212.786E-03     213.400E-03
            2895            2940     212.786E-03     213.400E-03
            2898            2940     212.786E-03     213.400E-03
            2896            2941     216.647E-03     219.990E-03
            2898            2941     216.647E-03     219.990E-03
            2895            2941     216.647E-03     219.990E-03
            2899            2941     216.647E-03     219.990E-03
            2901            2942     189.778E-03     190.026E-03
            2900            2942     189.778E-03     190.026E-03
            2898            2942     189.778E-03     190.026E-03
            2897            2942     189.778E-03     190.026E-03
            2899            2943     214.126E-03     215.407E-03
            2901            2943     214.126E-03     215.407E-03
            2898            2943     214.126E-03     215.407E-03
            2902            2943     214.126E-03     215.407E-03
            2903            2944     175.095E-03     176.166E-03
            2901            2944     175.095E-03     176.166E-03
            2904            2944     175.095E-03     176.166E-03
            2900            2944     175.095E-03     176.166E-03
            2904            2945     210.365E-03     209.785E-03
            2902            2945     210.365E-03     209.785E-03
            2905            2945     210.365E-03     209.785E-03
            2901            2945     210.365E-03     209.785E-03
            2903            2946     167.829E-03     168.912E-03
            2906            2946     167.829E-03     168.912E-03
            2904            2946     167.829E-03     168.912E-03
            2907            2946     167.829E-03     168.912E-03
            2907            2947     206.969E-03     203.798E-03
            2905            2947     206.969E-03     203.798E-03
            2908            2947     206.969E-03     203.798E-03
            2904            2947     206.969E-03     203.798E-03
            2907            2948     167.311E-03     167.068E-03
            2910            2948     167.311E-03     167.068E-03
            2909            2948     167.311E-03     167.068E-03
            2906            2948     167.311E-03     167.068E-03
            2908            2949     199.944E-03     196.261E-03
            2910            2949     199.944E-03     196.261E-03
            2907            2949     199.944E-03     196.261E-03
            2911            2949     199.944E-03     196.261E-03
            2910            2950     134.226E-03     133.302E-03
            2909            2950     134.226E-03     133.302E-03
            2912            2950     134.226E-03     133.302E-03
            2913            2950     134.226E-03     133.302E-03
            2911            2951     147.981E-03     146.231E-03
            2914            2951     147.981E-03     146.231E-03
            2910            2951     147.981E-03     146.231E-03
            2913            2951     147.981E-03     146.231E-03


  Minimum                            411.978E-06     423.598E-06
      At Element                            2833            2833
            Node                             565             565

  Maximum                            393.408E-03     382.141E-03
      At Element                            2839            2237
            Node                              16              20

           Total                         218.142         216.716


Field Output reported at element nodes for region: CRJ700-1.Region_3
   Computation algorithm: EXTRAPOLATE_COMPUTE_AVERAGE
   Averaged at nodes
   Averaging regions: ODB_REGIONS

   Element Label      Node Label         S.Mises         S.Mises
                                          @Loc 1          @Loc 2
-----------------------------------------------------------------
               1               1     2.36758E-03     2.49429E-03
            2288               1     2.36758E-03     2.49429E-03
            2273               2     3.50340E-03     3.64956E-03
              16               2     3.50340E-03     3.64956E-03
            1009               3     343.047E-03     356.060E-03
             544               3     343.047E-03     356.060E-03
             529               4     31.8657E-03     36.5774E-03
             994               4     31.8657E-03     36.5774E-03
            2368               7     232.183E-06     286.868E-06
            2353               9     71.3107E-06     153.926E-06
            1768              16     396.560E-03     424.425E-03
            1073              16     396.560E-03     424.425E-03
            1058              18     32.9537E-03     42.0959E-03
            1753              18     32.9537E-03     42.0959E-03
            1832              21     266.806E-03     279.378E-03
            3026              21     266.806E-03     279.378E-03
            3011              22     43.4707E-03     43.1830E-03
            1817              22     43.4707E-03     43.1830E-03
            2560              28     5.99634E-03     6.15379E-03
            3186              28     5.99634E-03     6.15379E-03
            2545              30     193.869E-06     460.033E-06
            3171              30     193.869E-06     460.033E-06
            2640              31     71.0490E-06     153.934E-06
            2625              32     231.758E-06     286.357E-06
               2              36     2.38023E-03     2.50009E-03
            2288              36     2.38023E-03     2.50009E-03
            2287              36     2.38023E-03     2.50009E-03
               1              36     2.38023E-03     2.50009E-03
               3              37     2.40601E-03     2.51907E-03
            2287              37     2.40601E-03     2.51907E-03
               2              37     2.40601E-03     2.51907E-03
            2286              37     2.40601E-03     2.51907E-03
            2285              38     2.43517E-03     2.55068E-03
               4              38     2.43517E-03     2.55068E-03
               3              38     2.43517E-03     2.55068E-03
            2286              38     2.43517E-03     2.55068E-03
            2285              39     2.47277E-03     2.59145E-03
               4              39     2.47277E-03     2.59145E-03
            2284              39     2.47277E-03     2.59145E-03
               5              39     2.47277E-03     2.59145E-03
            2284              40     2.51875E-03     2.63997E-03
            2283              40     2.51875E-03     2.63997E-03
               6              40     2.51875E-03     2.63997E-03
               5              40     2.51875E-03     2.63997E-03
            2282              41     2.57265E-03     2.69610E-03
               7              41     2.57265E-03     2.69610E-03
               6              41     2.57265E-03     2.69610E-03
            2283              41     2.57265E-03     2.69610E-03
            2281              42     2.63432E-03     2.75897E-03
            2282              42     2.63432E-03     2.75897E-03
               8              42     2.63432E-03     2.75897E-03
               7              42     2.63432E-03     2.75897E-03
            2281              43     2.70317E-03     2.82859E-03
               8              43     2.70317E-03     2.82859E-03
               9              43     2.70317E-03     2.82859E-03
            2280              43     2.70317E-03     2.82859E-03
              10              44     2.77821E-03     2.90398E-03
               9              44     2.77821E-03     2.90398E-03
            2280              44     2.77821E-03     2.90398E-03
            2279              44     2.77821E-03     2.90398E-03
            2278              45     2.85939E-03     2.98490E-03
            2279              45     2.85939E-03     2.98490E-03
              11              45     2.85939E-03     2.98490E-03
              10              45     2.85939E-03     2.98490E-03
              11              46     2.94482E-03     3.07032E-03
            2277              46     2.94482E-03     3.07032E-03
              12              46     2.94482E-03     3.07032E-03
            2278              46     2.94482E-03     3.07032E-03
              12              47     3.03566E-03     3.16057E-03
              13              47     3.03566E-03     3.16057E-03
            2277              47     3.03566E-03     3.16057E-03
            2276              47     3.03566E-03     3.16057E-03
            2276              48     3.13264E-03     3.25777E-03
              14              48     3.13264E-03     3.25777E-03
            2275              48     3.13264E-03     3.25777E-03
              13              48     3.13264E-03     3.25777E-03
              15              49     3.24313E-03     3.37007E-03
            2275              49     3.24313E-03     3.37007E-03
            2274              49     3.24313E-03     3.37007E-03
              14              49     3.24313E-03     3.37007E-03
            2273              50     3.40413E-03     3.54091E-03
              16              50     3.40413E-03     3.54091E-03
              15              50     3.40413E-03     3.54091E-03
            2274              50     3.40413E-03     3.54091E-03
              32              51     14.8085E-03     17.4111E-03
              16              51     14.8085E-03     17.4111E-03
              48              52     28.1725E-03     30.3475E-03
              32              52     28.1725E-03     30.3475E-03
              48              53     39.3953E-03     38.2283E-03
              64              53     39.3953E-03     38.2283E-03
              80              54     51.8981E-03     50.5704E-03
              64              54     51.8981E-03     50.5704E-03
              80              55     63.3763E-03     64.9983E-03
              96              55     63.3763E-03     64.9983E-03
              96              56     78.0655E-03     77.1236E-03
             112              56     78.0655E-03     77.1236E-03
             128              57     90.3610E-03     94.4960E-03
             112              57     90.3610E-03     94.4960E-03
             128              58     86.1982E-03     89.4059E-03
             144              58     86.1982E-03     89.4059E-03
             144              59     87.2045E-03     84.3979E-03
             160              59     87.2045E-03     84.3979E-03
             160              60     105.818E-03     106.173E-03
             176              60     105.818E-03     106.173E-03
             192              61     121.309E-03     124.196E-03
             176              61     121.309E-03     124.196E-03
             208              62     137.014E-03     137.164E-03
             192              62     137.014E-03     137.164E-03
             224              63     149.763E-03     153.963E-03
             208              63     149.763E-03     153.963E-03
             224              64     145.747E-03     150.020E-03
             240              64     145.747E-03     150.020E-03
             256              65     149.737E-03     145.915E-03
             240              65     149.737E-03     145.915E-03
             272              66     167.532E-03     169.606E-03
             256              66     167.532E-03     169.606E-03
             272              67     184.694E-03     186.236E-03
             288              67     184.694E-03     186.236E-03
             288              68     197.705E-03     202.297E-03
             304              68     197.705E-03     202.297E-03
             320              69     212.627E-03     213.614E-03
             304              69     212.627E-03     213.614E-03
             320              70     223.718E-03     227.829E-03
             336              70     223.718E-03     227.829E-03
             336              71     216.976E-03     222.883E-03
             352              71     216.976E-03     222.883E-03
             368              72     221.737E-03     217.903E-03
             352              72     221.737E-03     217.903E-03
             368              73     240.388E-03     243.297E-03
             384              73     240.388E-03     243.297E-03
             384              74     257.803E-03     260.715E-03
             400              74     257.803E-03     260.715E-03
             416              75     270.677E-03     276.599E-03
             400              75     270.677E-03     276.599E-03
             432              76     285.012E-03     286.809E-03
             416              76     285.012E-03     286.809E-03
             448              77     294.865E-03     298.939E-03
             432              77     294.865E-03     298.939E-03
             464              78     286.456E-03     294.029E-03
             448              78     286.456E-03     294.029E-03
             464              79     291.545E-03     289.518E-03
             480              79     291.545E-03     289.518E-03
             480              80     313.485E-03     315.481E-03
             496              80     313.485E-03     315.481E-03
             496              81     328.412E-03     337.292E-03
             512              81     328.412E-03     337.292E-03
             528              82     343.800E-03     345.490E-03
             512              82     343.800E-03     345.490E-03
             528              83     352.084E-03     357.073E-03
             544              83     352.084E-03     357.073E-03
            1009              84     324.097E-03     334.846E-03
             543              84     324.097E-03     334.846E-03
            1008              84     324.097E-03     334.846E-03
             544              84     324.097E-03     334.846E-03
             542              85     294.518E-03     302.270E-03
            1007              85     294.518E-03     302.270E-03
            1008              85     294.518E-03     302.270E-03
             543              85     294.518E-03     302.270E-03
            1007              86     272.787E-03     280.727E-03
             542              86     272.787E-03     280.727E-03
            1006              86     272.787E-03     280.727E-03
             541              86     272.787E-03     280.727E-03
            1005              87     252.054E-03     260.752E-03
            1006              87     252.054E-03     260.752E-03
             540              87     252.054E-03     260.752E-03
             541              87     252.054E-03     260.752E-03
            1005              88     232.333E-03     241.353E-03
            1004              88     232.333E-03     241.353E-03
             539              88     232.333E-03     241.353E-03
             540              88     232.333E-03     241.353E-03
             538              89     212.588E-03     221.907E-03
            1004              89     212.588E-03     221.907E-03
             539              89     212.588E-03     221.907E-03
            1003              89     212.588E-03     221.907E-03
            1002              90     192.942E-03     202.283E-03
             538              90     192.942E-03     202.283E-03
             537              90     192.942E-03     202.283E-03
            1003              90     192.942E-03     202.283E-03
             536              91     173.128E-03     182.533E-03
            1002              91     173.128E-03     182.533E-03
             537              91     173.128E-03     182.533E-03
            1001              91     173.128E-03     182.533E-03
            1000              92     153.281E-03     162.650E-03
            1001              92     153.281E-03     162.650E-03
             535              92     153.281E-03     162.650E-03
             536              92     153.281E-03     162.650E-03
            1000              93     133.326E-03     142.719E-03
             999              93     133.326E-03     142.719E-03
             534              93     133.326E-03     142.719E-03
             535              93     133.326E-03     142.719E-03
             998              94     113.419E-03     122.762E-03
             534              94     113.419E-03     122.762E-03
             533              94     113.419E-03     122.762E-03
             999              94     113.419E-03     122.762E-03
             532              95     93.6049E-03     102.807E-03
             997              95     93.6049E-03     102.807E-03
             533              95     93.6049E-03     102.807E-03
             998              95     93.6049E-03     102.807E-03
             997              96     74.1598E-03     82.9635E-03
             996              96     74.1598E-03     82.9635E-03
             531              96     74.1598E-03     82.9635E-03
             532              96     74.1598E-03     82.9635E-03
             530              97     55.5637E-03     63.4807E-03
             531              97     55.5637E-03     63.4807E-03
             995              97     55.5637E-03     63.4807E-03
             996              97     55.5637E-03     63.4807E-03
             530              98     39.2201E-03     45.2013E-03
             994              98     39.2201E-03     45.2013E-03
             529              98     39.2201E-03     45.2013E-03
             995              98     39.2201E-03     45.2013E-03
             513              99     27.8166E-03     38.2329E-03
             529              99     27.8166E-03     38.2329E-03
             513             100     21.9718E-03     35.2792E-03
             497             100     21.9718E-03     35.2792E-03
             481             101     27.8798E-03     33.6445E-03
             497             101     27.8798E-03     33.6445E-03
             481             102     35.8431E-03     43.7940E-03
             465             102     35.8431E-03     43.7940E-03
             465             103     45.8770E-03     55.4979E-03
             449             103     45.8770E-03     55.4979E-03
             449             104     40.7151E-03     45.1543E-03
             433             104     40.7151E-03     45.1543E-03
             433             105     22.8186E-03     31.4035E-03
             417             105     22.8186E-03     31.4035E-03
             417             106     19.0312E-03     27.8870E-03
             401             106     19.0312E-03     27.8870E-03
             401             107     22.1956E-03     28.5923E-03
             385             107     22.1956E-03     28.5923E-03
             385             108     28.5614E-03     31.8928E-03
             369             108     28.5614E-03     31.8928E-03
             353             109     36.4471E-03     41.3349E-03
             369             109     36.4471E-03     41.3349E-03
             337             110     43.8558E-03     52.1456E-03
             353             110     43.8558E-03     52.1456E-03
             337             111     33.4362E-03     38.9933E-03
             321             111     33.4362E-03     38.9933E-03
             321             112     16.3406E-03     22.5506E-03
             305             112     16.3406E-03     22.5506E-03
             289             113     16.3493E-03     21.0254E-03
             305             113     16.3493E-03     21.0254E-03
             289             114     20.0789E-03     23.2960E-03
             273             114     20.0789E-03     23.2960E-03
             257             115     25.4645E-03     26.3398E-03
             273             115     25.4645E-03     26.3398E-03
             257             116     31.4216E-03     33.7624E-03
             241             116     31.4216E-03     33.7624E-03
             241             117     36.0670E-03     42.4058E-03
             225             117     36.0670E-03     42.4058E-03
             225             118     24.3317E-03     31.0132E-03
             209             118     24.3317E-03     31.0132E-03
             209             119     13.0021E-03     16.8785E-03
             193             119     13.0021E-03     16.8785E-03
             177             120     16.8222E-03     17.5134E-03
             193             120     16.8222E-03     17.5134E-03
             161             121     20.4748E-03     19.4058E-03
             177             121     20.4748E-03     19.4058E-03
             145             122     24.5756E-03     24.4075E-03
             161             122     24.5756E-03     24.4075E-03
             145             123     26.7142E-03     30.6095E-03
             129             123     26.7142E-03     30.6095E-03
             113             124     18.9588E-03     25.0415E-03
             129             124     18.9588E-03     25.0415E-03
              97             125     13.9951E-03     17.4084E-03
             113             125     13.9951E-03     17.4084E-03
              97             126     18.3694E-03     16.3368E-03
              81             126     18.3694E-03     16.3368E-03
              65             127     19.7254E-03     17.8777E-03
              81             127     19.7254E-03     17.8777E-03
              49             128     21.4108E-03     19.0496E-03
              65             128     21.4108E-03     19.0496E-03
              49             129     23.1364E-03     21.5040E-03
              33             129     23.1364E-03     21.5040E-03
              17             130     22.1735E-03     25.6666E-03
              33             130     22.1735E-03     25.6666E-03
              17             131     12.5979E-03     15.6809E-03
               1             131     12.5979E-03     15.6809E-03
            2352             167     250.985E-06     274.185E-06
            2368             167     250.985E-06     274.185E-06
            2336             168     264.515E-06     242.251E-06
            2352             168     264.515E-06     242.251E-06
            2320             169     254.095E-06     221.310E-06
            2336             169     254.095E-06     221.310E-06
            2304             170     246.111E-06     221.858E-06
            2320             170     246.111E-06     221.858E-06
            2304             171     217.045E-06     231.991E-06
            2288             171     217.045E-06     231.991E-06
            2289             176     494.991E-06     520.447E-06
            2273             176     494.991E-06     520.447E-06
            2305             177     375.069E-06     372.493E-06
            2289             177     375.069E-06     372.493E-06
            2321             178     248.745E-06     252.106E-06
            2305             178     248.745E-06     252.106E-06
            2337             179     135.873E-06     127.256E-06
            2321             179     135.873E-06     127.256E-06
            2337             180     67.8608E-06     115.274E-06
            2353             180     67.8608E-06     115.274E-06
            1025             314     344.758E-03     347.888E-03
            1009             314     344.758E-03     347.888E-03
            1025             315     366.888E-03     370.472E-03
            1041             315     366.888E-03     370.472E-03
            1057             316     393.692E-03     395.094E-03
            1041             316     393.692E-03     395.094E-03
            1073             317     405.739E-03     413.261E-03
            1057             317     405.739E-03     413.261E-03
            1768             324     367.025E-03     394.426E-03
            1073             324     367.025E-03     394.426E-03
            1767             324     367.025E-03     394.426E-03
            1072             324     367.025E-03     394.426E-03
            1072             325     328.762E-03     352.960E-03
            1071             325     328.762E-03     352.960E-03
            1766             325     328.762E-03     352.960E-03
            1767             325     328.762E-03     352.960E-03
            1766             326     306.168E-03     329.724E-03
            1071             326     306.168E-03     329.724E-03
            1070             326     306.168E-03     329.724E-03
            1765             326     306.168E-03     329.724E-03
            1070             327     281.458E-03     305.179E-03
            1764             327     281.458E-03     305.179E-03
            1765             327     281.458E-03     305.179E-03
            1069             327     281.458E-03     305.179E-03
            1069             328     257.975E-03     280.640E-03
            1764             328     257.975E-03     280.640E-03
            1068             328     257.975E-03     280.640E-03
            1763             328     257.975E-03     280.640E-03
            1068             329     233.764E-03     256.124E-03
            1067             329     233.764E-03     256.124E-03
            1762             329     233.764E-03     256.124E-03
            1763             329     233.764E-03     256.124E-03
            1067             330     209.818E-03     231.162E-03
            1762             330     209.818E-03     231.162E-03
            1761             330     209.818E-03     231.162E-03
            1066             330     209.818E-03     231.162E-03
            1066             331     185.566E-03     206.333E-03
            1760             331     185.566E-03     206.333E-03
            1065             331     185.566E-03     206.333E-03
            1761             331     185.566E-03     206.333E-03
            1760             332     161.472E-03     181.328E-03
            1759             332     161.472E-03     181.328E-03
            1064             332     161.472E-03     181.328E-03
            1065             332     161.472E-03     181.328E-03
            1064             333     137.397E-03     156.476E-03
            1063             333     137.397E-03     156.476E-03
            1758             333     137.397E-03     156.476E-03
            1759             333     137.397E-03     156.476E-03
            1757             334     113.523E-03     131.650E-03
            1758             334     113.523E-03     131.650E-03
            1062             334     113.523E-03     131.650E-03
            1063             334     113.523E-03     131.650E-03
            1757             335     90.1381E-03     107.108E-03
            1756             335     90.1381E-03     107.108E-03
            1061             335     90.1381E-03     107.108E-03
            1062             335     90.1381E-03     107.108E-03
            1755             336     67.5270E-03     82.6237E-03
            1756             336     67.5270E-03     82.6237E-03
            1061             336     67.5270E-03     82.6237E-03
            1060             336     67.5270E-03     82.6237E-03
            1060             337     47.0577E-03     58.2869E-03
            1755             337     47.0577E-03     58.2869E-03
            1059             337     47.0577E-03     58.2869E-03
            1754             337     47.0577E-03     58.2869E-03
            1753             338     35.3929E-03     44.1724E-03
            1059             338     35.3929E-03     44.1724E-03
            1754             338     35.3929E-03     44.1724E-03
            1058             338     35.3929E-03     44.1724E-03
            1042             339     22.1220E-03     34.1620E-03
            1058             339     22.1220E-03     34.1620E-03
            1042             340     20.4030E-03     28.8294E-03
            1026             340     20.4030E-03     28.8294E-03
            1026             341     30.3501E-03     42.0183E-03
            1010             341     30.3501E-03     42.0183E-03
             994             342     35.8548E-03     44.0019E-03
            1010             342     35.8548E-03     44.0019E-03
            1768             393     369.826E-03     375.466E-03
            1784             393     369.826E-03     375.466E-03
            1800             394     352.527E-03     357.755E-03
            1784             394     352.527E-03     357.755E-03
            1816             395     338.385E-03     351.059E-03
            1800             395     338.385E-03     351.059E-03
            1832             396     292.811E-03     282.214E-03
            1816             396     292.811E-03     282.214E-03
            1832             397     258.756E-03     268.267E-03
            3026             397     258.756E-03     268.267E-03
            1831             397     258.756E-03     268.267E-03
            3025             397     258.756E-03     268.267E-03
            3024             398     245.769E-03     251.548E-03
            1830             398     245.769E-03     251.548E-03
            1831             398     245.769E-03     251.548E-03
            3025             398     245.769E-03     251.548E-03
            3023             399     231.450E-03     236.959E-03
            1830             399     231.450E-03     236.959E-03
            3024             399     231.450E-03     236.959E-03
            1829             399     231.450E-03     236.959E-03
            3022             400     213.696E-03     219.791E-03
            3023             400     213.696E-03     219.791E-03
            1828             400     213.696E-03     219.791E-03
            1829             400     213.696E-03     219.791E-03
            3021             401     196.519E-03     202.683E-03
            1828             401     196.519E-03     202.683E-03
            3022             401     196.519E-03     202.683E-03
            1827             401     196.519E-03     202.683E-03
            3021             402     179.031E-03     185.186E-03
            1826             402     179.031E-03     185.186E-03
            3020             402     179.031E-03     185.186E-03
            1827             402     179.031E-03     185.186E-03
            3019             403     161.668E-03     167.839E-03
            3020             403     161.668E-03     167.839E-03
            1825             403     161.668E-03     167.839E-03
            1826             403     161.668E-03     167.839E-03
            1825             404     144.359E-03     150.522E-03
            3018             404     144.359E-03     150.522E-03
            3019             404     144.359E-03     150.522E-03
            1824             404     144.359E-03     150.522E-03
            1824             405     127.302E-03     133.460E-03
            3018             405     127.302E-03     133.460E-03
            3017             405     127.302E-03     133.460E-03
            1823             405     127.302E-03     133.460E-03
            1823             406     110.629E-03     116.729E-03
            1822             406     110.629E-03     116.729E-03
            3016             406     110.629E-03     116.729E-03
            3017             406     110.629E-03     116.729E-03
            3015             407     94.5719E-03     100.548E-03
            1822             407     94.5719E-03     100.548E-03
            1821             407     94.5719E-03     100.548E-03
            3016             407     94.5719E-03     100.548E-03
            3015             408     79.5771E-03     85.2466E-03
            3014             408     79.5771E-03     85.2466E-03
            1821             408     79.5771E-03     85.2466E-03
            1820             408     79.5771E-03     85.2466E-03
            1820             409     66.3078E-03     71.5676E-03
            3013             409     66.3078E-03     71.5676E-03
            3014             409     66.3078E-03     71.5676E-03
            1819             409     66.3078E-03     71.5676E-03
            3012             410     56.3459E-03     60.5113E-03
            3013             410     56.3459E-03     60.5113E-03
            1818             410     56.3459E-03     60.5113E-03
            1819             410     56.3459E-03     60.5113E-03
            1817             411     47.9715E-03     49.4914E-03
            1818             411     47.9715E-03     49.4914E-03
            3011             411     47.9715E-03     49.4914E-03
            3012             411     47.9715E-03     49.4914E-03
            1801             412     51.0613E-03     52.2288E-03
            1817             412     51.0613E-03     52.2288E-03
            1801             413     41.9868E-03     38.1530E-03
            1785             413     41.9868E-03     38.1530E-03
            1785             414     39.8357E-03     35.7100E-03
            1769             414     39.8357E-03     35.7100E-03
            1769             415     45.6448E-03     44.3451E-03
            1753             415     45.6448E-03     44.3451E-03
            3042             470     256.566E-03     269.675E-03
            3026             470     256.566E-03     269.675E-03
            3042             471     215.651E-03     203.083E-03
            3058             471     215.651E-03     203.083E-03
            3074             472     204.256E-03     213.362E-03
            3058             472     204.256E-03     213.362E-03
            3090             473     211.662E-03     221.133E-03
            3074             473     211.662E-03     221.133E-03
            3106             474     180.289E-03     178.267E-03
            3090             474     180.289E-03     178.267E-03
            3106             475     143.173E-03     147.349E-03
            3122             475     143.173E-03     147.349E-03
            3138             476     113.430E-03     110.608E-03
            3122             476     113.430E-03     110.608E-03
            3138             477     79.7555E-03     78.1165E-03
            3154             477     79.7555E-03     78.1165E-03
            3170             478     50.0531E-03     56.6363E-03
            3154             478     50.0531E-03     56.6363E-03
            3186             479     24.5636E-03     31.1494E-03
            3170             479     24.5636E-03     31.1494E-03
            2367             492     247.219E-06     277.135E-06
            2368             492     247.219E-06     277.135E-06
            2366             493     266.454E-06     264.211E-06
            2367             493     266.454E-06     264.211E-06
            2366             494     272.406E-06     261.654E-06
            2365             494     272.406E-06     261.654E-06
            2364             495     277.650E-06     262.694E-06
            2365             495     277.650E-06     262.694E-06
            2363             496     282.721E-06     263.863E-06
            2364             496     282.721E-06     263.863E-06
            2362             497     287.718E-06     266.383E-06
            2363             497     287.718E-06     266.383E-06
            2361             498     292.775E-06     268.615E-06
            2362             498     292.775E-06     268.615E-06
            2361             499     298.091E-06     271.689E-06
            2360             499     298.091E-06     271.689E-06
            2359             500     301.935E-06     273.658E-06
            2360             500     301.935E-06     273.658E-06
            2358             501     305.335E-06     274.615E-06
            2359             501     305.335E-06     274.615E-06
            2358             502     302.659E-06     271.113E-06
            2357             502     302.659E-06     271.113E-06
            2356             503     293.861E-06     258.825E-06
            2357             503     293.861E-06     258.825E-06
            2355             504     265.080E-06     228.281E-06
            2356             504     265.080E-06     228.281E-06
            2354             505     215.524E-06     172.427E-06
            2355             505     215.524E-06     172.427E-06
            2353             506     131.584E-06     146.924E-06
            2354             506     131.584E-06     146.924E-06
            3027             522     43.5142E-03     40.5771E-03
            3011             522     43.5142E-03     40.5771E-03
            3043             523     49.4267E-03     49.7102E-03
            3027             523     49.4267E-03     49.7102E-03
            3059             524     42.7149E-03     45.0818E-03
            3043             524     42.7149E-03     45.0818E-03
            3059             525     40.4198E-03     41.2683E-03
            3075             525     40.4198E-03     41.2683E-03
            3091             526     46.3571E-03     40.8125E-03
            3075             526     46.3571E-03     40.8125E-03
            3091             527     50.2815E-03     44.2415E-03
            3107             527     50.2815E-03     44.2415E-03
            3107             528     54.1261E-03     48.0711E-03
            3123             528     54.1261E-03     48.0711E-03
            3139             529     58.4247E-03     54.7257E-03
            3123             529     58.4247E-03     54.7257E-03
            3155             530     58.0155E-03     64.8480E-03
            3139             530     58.0155E-03     64.8480E-03
            3171             531     28.2060E-03     33.8826E-03
            3155             531     28.2060E-03     33.8826E-03
            3171             547     339.709E-06     574.037E-06
            3172             547     339.709E-06     574.037E-06
            2545             547     339.709E-06     574.037E-06
            2546             547     339.709E-06     574.037E-06
            3172             548     675.006E-06     858.818E-06
            3173             548     675.006E-06     858.818E-06
            2546             548     675.006E-06     858.818E-06
            2547             548     675.006E-06     858.818E-06
            3173             549     1.05474E-03     1.21370E-03
            2548             549     1.05474E-03     1.21370E-03
            2547             549     1.05474E-03     1.21370E-03
            3174             549     1.05474E-03     1.21370E-03
            2549             550     1.43732E-03     1.58608E-03
            3175             550     1.43732E-03     1.58608E-03
            2548             550     1.43732E-03     1.58608E-03
            3174             550     1.43732E-03     1.58608E-03
            3176             551     1.82110E-03     1.96463E-03
            2549             551     1.82110E-03     1.96463E-03
            2550             551     1.82110E-03     1.96463E-03
            3175             551     1.82110E-03     1.96463E-03
            2551             552     2.20565E-03     2.34649E-03
            3177             552     2.20565E-03     2.34649E-03
            3176             552     2.20565E-03     2.34649E-03
            2550             552     2.20565E-03     2.34649E-03
            3177             553     2.59113E-03     2.72995E-03
            2551             553     2.59113E-03     2.72995E-03
            3178             553     2.59113E-03     2.72995E-03
            2552             553     2.59113E-03     2.72995E-03
            3178             554     2.97736E-03     3.11484E-03
            2552             554     2.97736E-03     3.11484E-03
            3179             554     2.97736E-03     3.11484E-03
            2553             554     2.97736E-03     3.11484E-03
            2553             555     3.36379E-03     3.50030E-03
            3180             555     3.36379E-03     3.50030E-03
            2554             555     3.36379E-03     3.50030E-03
            3179             555     3.36379E-03     3.50030E-03
            3181             556     3.75085E-03     3.88633E-03
            2554             556     3.75085E-03     3.88633E-03
            2555             556     3.75085E-03     3.88633E-03
            3180             556     3.75085E-03     3.88633E-03
            3182             557     4.13705E-03     4.27219E-03
            2556             557     4.13705E-03     4.27219E-03
            2555             557     4.13705E-03     4.27219E-03
            3181             557     4.13705E-03     4.27219E-03
            2557             558     4.52398E-03     4.65851E-03
            3182             558     4.52398E-03     4.65851E-03
            2556             558     4.52398E-03     4.65851E-03
            3183             558     4.52398E-03     4.65851E-03
            3184             559     4.91267E-03     5.04765E-03
            3183             559     4.91267E-03     5.04765E-03
            2557             559     4.91267E-03     5.04765E-03
            2558             559     4.91267E-03     5.04765E-03
            2559             560     5.31083E-03     5.44807E-03
            3184             560     5.31083E-03     5.44807E-03
            3185             560     5.31083E-03     5.44807E-03
            2558             560     5.31083E-03     5.44807E-03
            3186             561     5.75590E-03     5.90358E-03
            2559             561     5.75590E-03     5.90358E-03
            2560             561     5.75590E-03     5.90358E-03
            3185             561     5.75590E-03     5.90358E-03
            2560             562     492.085E-06     517.720E-06
            2576             562     492.085E-06     517.720E-06
            2576             563     372.755E-06     370.147E-06
            2592             563     372.755E-06     370.147E-06
            2608             564     246.838E-06     250.185E-06
            2592             564     246.838E-06     250.185E-06
            2624             565     134.296E-06     125.806E-06
            2608             565     134.296E-06     125.806E-06
            2640             566     67.0317E-06     114.656E-06
            2624             566     67.0317E-06     114.656E-06
            2640             567     131.776E-06     147.249E-06
            2639             567     131.776E-06     147.249E-06
            2639             568     215.924E-06     172.867E-06
            2638             568     215.924E-06     172.867E-06
            2638             569     265.126E-06     228.339E-06
            2637             569     265.126E-06     228.339E-06
            2636             570     293.660E-06     258.593E-06
            2637             570     293.660E-06     258.593E-06
            2635             571     302.251E-06     270.661E-06
            2636             571     302.251E-06     270.661E-06
            2635             572     304.798E-06     274.023E-06
            2634             572     304.798E-06     274.023E-06
            2634             573     301.341E-06     273.019E-06
            2633             573     301.341E-06     273.019E-06
            2632             574     297.490E-06     271.037E-06
            2633             574     297.490E-06     271.037E-06
            2632             575     292.186E-06     267.981E-06
            2631             575     292.186E-06     267.981E-06
            2631             576     287.154E-06     265.781E-06
            2630             576     287.154E-06     265.781E-06
            2629             577     282.187E-06     263.295E-06
            2630             577     282.187E-06     263.295E-06
            2629             578     277.152E-06     262.155E-06
            2628             578     277.152E-06     262.155E-06
            2628             579     271.934E-06     261.127E-06
            2627             579     271.934E-06     261.127E-06
            2627             580     266.028E-06     263.675E-06
            2626             580     266.028E-06     263.675E-06
            2625             581     246.809E-06     276.605E-06
            2626             581     246.809E-06     276.605E-06
            2609             582     250.542E-06     273.769E-06
            2625             582     250.542E-06     273.769E-06
            2593             583     264.202E-06     241.928E-06
            2609             583     264.202E-06     241.928E-06
            2593             584     253.983E-06     220.988E-06
            2577             584     253.983E-06     220.988E-06
            2577             585     246.029E-06     221.757E-06
            2561             585     246.029E-06     221.757E-06
            2545             586     217.022E-06     232.095E-06
            2561             586     217.022E-06     232.095E-06
               1             635     13.3494E-03     14.9580E-03
              17             635     13.3494E-03     14.9580E-03
              18             635     13.3494E-03     14.9580E-03
               2             635     13.3494E-03     14.9580E-03
              19             636     14.4321E-03     14.0309E-03
               2             636     14.4321E-03     14.0309E-03
              18             636     14.4321E-03     14.0309E-03
               3             636     14.4321E-03     14.0309E-03
               3             637     15.1373E-03     14.0713E-03
               4             637     15.1373E-03     14.0713E-03
              20             637     15.1373E-03     14.0713E-03
              19             637     15.1373E-03     14.0713E-03
               4             638     15.9054E-03     14.5212E-03
              21             638     15.9054E-03     14.5212E-03
              20             638     15.9054E-03     14.5212E-03
               5             638     15.9054E-03     14.5212E-03
              22             639     16.7651E-03     15.1119E-03
               5             639     16.7651E-03     15.1119E-03
               6             639     16.7651E-03     15.1119E-03
              21             639     16.7651E-03     15.1119E-03
              22             640     17.7133E-03     15.8542E-03
              23             640     17.7133E-03     15.8542E-03
               7             640     17.7133E-03     15.8542E-03
               6             640     17.7133E-03     15.8542E-03
               8             641     18.6984E-03     16.6748E-03
              24             641     18.6984E-03     16.6748E-03
              23             641     18.6984E-03     16.6748E-03
               7             641     18.6984E-03     16.6748E-03
              25             642     19.7022E-03     17.5200E-03
              24             642     19.7022E-03     17.5200E-03
               9             642     19.7022E-03     17.5200E-03
               8             642     19.7022E-03     17.5200E-03
              25             643     20.6484E-03     18.3311E-03
              10             643     20.6484E-03     18.3311E-03
              26             643     20.6484E-03     18.3311E-03
               9             643     20.6484E-03     18.3311E-03
              11             644     21.4784E-03     19.0134E-03
              27             644     21.4784E-03     19.0134E-03
              26             644     21.4784E-03     19.0134E-03
              10             644     21.4784E-03     19.0134E-03
              28             645     21.9691E-03     19.3447E-03
              27             645     21.9691E-03     19.3447E-03
              11             645     21.9691E-03     19.3447E-03
              12             645     21.9691E-03     19.3447E-03
              28             646     22.0240E-03     19.1746E-03
              29             646     22.0240E-03     19.1746E-03
              12             646     22.0240E-03     19.1746E-03
              13             646     22.0240E-03     19.1746E-03
              30             647     20.9814E-03     17.8513E-03
              13             647     20.9814E-03     17.8513E-03
              14             647     20.9814E-03     17.8513E-03
              29             647     20.9814E-03     17.8513E-03
              14             648     18.6609E-03     15.2361E-03
              30             648     18.6609E-03     15.2361E-03
              15             648     18.6609E-03     15.2361E-03
              31             648     18.6609E-03     15.2361E-03
              31             649     16.0705E-03     15.5534E-03
              16             649     16.0705E-03     15.5534E-03
              15             649     16.0705E-03     15.5534E-03
              32             649     16.0705E-03     15.5534E-03
              34             650     22.1634E-03     24.2867E-03
              17             650     22.1634E-03     24.2867E-03
              33             650     22.1634E-03     24.2867E-03
              18             650     22.1634E-03     24.2867E-03
              35             651     22.9518E-03     22.6584E-03
              19             651     22.9518E-03     22.6584E-03
              34             651     22.9518E-03     22.6584E-03
              18             651     22.9518E-03     22.6584E-03
              36             652     24.5107E-03     22.7182E-03
              19             652     24.5107E-03     22.7182E-03
              20             652     24.5107E-03     22.7182E-03
              35             652     24.5107E-03     22.7182E-03
              20             653     26.0743E-03     23.5911E-03
              21             653     26.0743E-03     23.5911E-03
              36             653     26.0743E-03     23.5911E-03
              37             653     26.0743E-03     23.5911E-03
              37             654     27.8077E-03     24.8783E-03
              21             654     27.8077E-03     24.8783E-03
              38             654     27.8077E-03     24.8783E-03
              22             654     27.8077E-03     24.8783E-03
              23             655     29.6888E-03     26.4358E-03
              39             655     29.6888E-03     26.4358E-03
              22             655     29.6888E-03     26.4358E-03
              38             655     29.6888E-03     26.4358E-03
              40             656     31.6735E-03     28.1622E-03
              24             656     31.6735E-03     28.1622E-03
              23             656     31.6735E-03     28.1622E-03
              39             656     31.6735E-03     28.1622E-03
              41             657     33.7287E-03     29.9791E-03
              25             657     33.7287E-03     29.9791E-03
              24             657     33.7287E-03     29.9791E-03
              40             657     33.7287E-03     29.9791E-03
              25             658     35.7435E-03     31.7984E-03
              42             658     35.7435E-03     31.7984E-03
              41             658     35.7435E-03     31.7984E-03
              26             658     35.7435E-03     31.7984E-03
              26             659     37.6128E-03     33.4338E-03
              42             659     37.6128E-03     33.4338E-03
              43             659     37.6128E-03     33.4338E-03
              27             659     37.6128E-03     33.4338E-03
              27             660     39.0416E-03     34.6554E-03
              28             660     39.0416E-03     34.6554E-03
              44             660     39.0416E-03     34.6554E-03
              43             660     39.0416E-03     34.6554E-03
              29             661     39.4243E-03     34.8044E-03
              45             661     39.4243E-03     34.8044E-03
              28             661     39.4243E-03     34.8044E-03
              44             661     39.4243E-03     34.8044E-03
              46             662     38.0437E-03     33.1072E-03
              30             662     38.0437E-03     33.1072E-03
              45             662     38.0437E-03     33.1072E-03
              29             662     38.0437E-03     33.1072E-03
              31             663     32.2843E-03     27.6993E-03
              47             663     32.2843E-03     27.6993E-03
              46             663     32.2843E-03     27.6993E-03
              30             663     32.2843E-03     27.6993E-03
              31             664     27.9540E-03     27.0027E-03
              48             664     27.9540E-03     27.0027E-03
              47             664     27.9540E-03     27.0027E-03
              32             664     27.9540E-03     27.0027E-03
              49             665     22.0097E-03     21.4378E-03
              34             665     22.0097E-03     21.4378E-03
              33             665     22.0097E-03     21.4378E-03
              50             665     22.0097E-03     21.4378E-03
              51             666     21.1932E-03     21.2805E-03
              50             666     21.1932E-03     21.2805E-03
              35             666     21.1932E-03     21.2805E-03
              34             666     21.1932E-03     21.2805E-03
              52             667     22.3660E-03     21.5726E-03
              35             667     22.3660E-03     21.5726E-03
              36             667     22.3660E-03     21.5726E-03
              51             667     22.3660E-03     21.5726E-03
              37             668     24.0955E-03     22.7020E-03
              53             668     24.0955E-03     22.7020E-03
              52             668     24.0955E-03     22.7020E-03
              36             668     24.0955E-03     22.7020E-03
              38             669     25.9554E-03     24.3327E-03
              54             669     25.9554E-03     24.3327E-03
              37             669     25.9554E-03     24.3327E-03
              53             669     25.9554E-03     24.3327E-03
              54             670     28.0373E-03     26.2349E-03
              39             670     28.0373E-03     26.2349E-03
              38             670     28.0373E-03     26.2349E-03
              55             670     28.0373E-03     26.2349E-03
              40             671     30.2738E-03     28.3514E-03
              39             671     30.2738E-03     28.3514E-03
              55             671     30.2738E-03     28.3514E-03
              56             671     30.2738E-03     28.3514E-03
              56             672     32.6381E-03     30.6193E-03
              40             672     32.6381E-03     30.6193E-03
              57             672     32.6381E-03     30.6193E-03
              41             672     32.6381E-03     30.6193E-03
              42             673     35.1192E-03     33.0114E-03
              57             673     35.1192E-03     33.0114E-03
              58             673     35.1192E-03     33.0114E-03
              41             673     35.1192E-03     33.0114E-03
              42             674     37.5855E-03     35.4119E-03
              43             674     37.5855E-03     35.4119E-03
              58             674     37.5855E-03     35.4119E-03
              59             674     37.5855E-03     35.4119E-03
              59             675     39.9241E-03     37.6779E-03
              43             675     39.9241E-03     37.6779E-03
              60             675     39.9241E-03     37.6779E-03
              44             675     39.9241E-03     37.6779E-03
              45             676     41.3861E-03     39.2141E-03
              60             676     41.3861E-03     39.2141E-03
              61             676     41.3861E-03     39.2141E-03
              44             676     41.3861E-03     39.2141E-03
              45             677     40.8997E-03     39.0881E-03
              46             677     40.8997E-03     39.0881E-03
              62             677     40.8997E-03     39.0881E-03
              61             677     40.8997E-03     39.0881E-03
              46             678     35.9405E-03     35.1308E-03
              47             678     35.9405E-03     35.1308E-03
              63             678     35.9405E-03     35.1308E-03
              62             678     35.9405E-03     35.1308E-03
              47             679     35.5943E-03     34.9876E-03
              48             679     35.5943E-03     34.9876E-03
              63             679     35.5943E-03     34.9876E-03
              64             679     35.5943E-03     34.9876E-03
              66             680     20.7948E-03     19.0247E-03
              49             680     20.7948E-03     19.0247E-03
              65             680     20.7948E-03     19.0247E-03
              50             680     20.7948E-03     19.0247E-03
              67             681     20.0852E-03     19.4414E-03
              66             681     20.0852E-03     19.4414E-03
              51             681     20.0852E-03     19.4414E-03
              50             681     20.0852E-03     19.4414E-03
              68             682     20.5714E-03     20.5059E-03
              52             682     20.5714E-03     20.5059E-03
              67             682     20.5714E-03     20.5059E-03
              51             682     20.5714E-03     20.5059E-03
              52             683     22.0771E-03     22.0017E-03
              68             683     22.0771E-03     22.0017E-03
              53             683     22.0771E-03     22.0017E-03
              69             683     22.0771E-03     22.0017E-03
              54             684     24.0710E-03     23.9272E-03
              69             684     24.0710E-03     23.9272E-03
              53             684     24.0710E-03     23.9272E-03
              70             684     24.0710E-03     23.9272E-03
              71             685     26.3093E-03     26.1321E-03
              54             685     26.3093E-03     26.1321E-03
              70             685     26.3093E-03     26.1321E-03
              55             685     26.3093E-03     26.1321E-03
              55             686     28.7313E-03     28.5389E-03
              72             686     28.7313E-03     28.5389E-03
              56             686     28.7313E-03     28.5389E-03
              71             686     28.7313E-03     28.5389E-03
              57             687     31.3135E-03     31.1210E-03
              56             687     31.3135E-03     31.1210E-03
              72             687     31.3135E-03     31.1210E-03
              73             687     31.3135E-03     31.1210E-03
              74             688     34.0263E-03     33.8405E-03
              58             688     34.0263E-03     33.8405E-03
              57             688     34.0263E-03     33.8405E-03
              73             688     34.0263E-03     33.8405E-03
              74             689     36.8695E-03     36.7054E-03
              75             689     36.8695E-03     36.7054E-03
              59             689     36.8695E-03     36.7054E-03
              58             689     36.8695E-03     36.7054E-03
              76             690     39.5662E-03     39.4919E-03
              75             690     39.5662E-03     39.4919E-03
              60             690     39.5662E-03     39.4919E-03
              59             690     39.5662E-03     39.4919E-03
              61             691     42.0623E-03     42.0645E-03
              76             691     42.0623E-03     42.0645E-03
              77             691     42.0623E-03     42.0645E-03
              60             691     42.0623E-03     42.0645E-03
              78             692     42.7495E-03     43.3408E-03
              62             692     42.7495E-03     43.3408E-03
              61             692     42.7495E-03     43.3408E-03
              77             692     42.7495E-03     43.3408E-03
              62             693     41.7992E-03     42.9578E-03
              78             693     41.7992E-03     42.9578E-03
              63             693     41.7992E-03     42.9578E-03
              79             693     41.7992E-03     42.9578E-03
              63             694     46.6601E-03     46.5640E-03
              80             694     46.6601E-03     46.5640E-03
              64             694     46.6601E-03     46.5640E-03
              79             694     46.6601E-03     46.5640E-03
              65             695     19.1713E-03     17.6436E-03
              82             695     19.1713E-03     17.6436E-03
              81             695     19.1713E-03     17.6436E-03
              66             695     19.1713E-03     17.6436E-03
              82             696     18.4464E-03     18.0723E-03
              66             696     18.4464E-03     18.0723E-03
              67             696     18.4464E-03     18.0723E-03
              83             696     18.4464E-03     18.0723E-03
              67             697     18.7022E-03     19.5941E-03
              84             697     18.7022E-03     19.5941E-03
              68             697     18.7022E-03     19.5941E-03
              83             697     18.7022E-03     19.5941E-03
              84             698     20.0824E-03     21.4618E-03
              85             698     20.0824E-03     21.4618E-03
              68             698     20.0824E-03     21.4618E-03
              69             698     20.0824E-03     21.4618E-03
              85             699     22.1473E-03     23.6300E-03
              70             699     22.1473E-03     23.6300E-03
              86             699     22.1473E-03     23.6300E-03
              69             699     22.1473E-03     23.6300E-03
              87             700     24.4722E-03     26.0492E-03
              86             700     24.4722E-03     26.0492E-03
              71             700     24.4722E-03     26.0492E-03
              70             700     24.4722E-03     26.0492E-03
              72             701     26.9833E-03     28.6252E-03
              71             701     26.9833E-03     28.6252E-03
              87             701     26.9833E-03     28.6252E-03
              88             701     26.9833E-03     28.6252E-03
              88             702     29.6359E-03     31.3346E-03
              89             702     29.6359E-03     31.3346E-03
              73             702     29.6359E-03     31.3346E-03
              72             702     29.6359E-03     31.3346E-03
              73             703     32.4038E-03     34.1676E-03
              89             703     32.4038E-03     34.1676E-03
              90             703     32.4038E-03     34.1676E-03
              74             703     32.4038E-03     34.1676E-03
              90             704     35.2642E-03     37.0985E-03
              91             704     35.2642E-03     37.0985E-03
              74             704     35.2642E-03     37.0985E-03
              75             704     35.2642E-03     37.0985E-03
              75             705     38.2175E-03     40.1667E-03
              92             705     38.2175E-03     40.1667E-03
              76             705     38.2175E-03     40.1667E-03
              91             705     38.2175E-03     40.1667E-03
              92             706     41.0437E-03     43.1776E-03
              76             706     41.0437E-03     43.1776E-03
              93             706     41.0437E-03     43.1776E-03
              77             706     41.0437E-03     43.1776E-03
              77             707     44.3438E-03     46.4009E-03
              93             707     44.3438E-03     46.4009E-03
              78             707     44.3438E-03     46.4009E-03
              94             707     44.3438E-03     46.4009E-03
              78             708     49.0144E-03     50.4310E-03
              94             708     49.0144E-03     50.4310E-03
              95             708     49.0144E-03     50.4310E-03
              79             708     49.0144E-03     50.4310E-03
              80             709     57.5408E-03     58.8350E-03
              96             709     57.5408E-03     58.8350E-03
              95             709     57.5408E-03     58.8350E-03
              79             709     57.5408E-03     58.8350E-03
              97             710     17.1967E-03     16.6767E-03
              98             710     17.1967E-03     16.6767E-03
              81             710     17.1967E-03     16.6767E-03
              82             710     17.1967E-03     16.6767E-03
              82             711     15.9028E-03     17.5271E-03
              98             711     15.9028E-03     17.5271E-03
              99             711     15.9028E-03     17.5271E-03
              83             711     15.9028E-03     17.5271E-03
              84             712     16.4951E-03     18.9914E-03
              99             712     16.4951E-03     18.9914E-03
              83             712     16.4951E-03     18.9914E-03
             100             712     16.4951E-03     18.9914E-03
             100             713     18.1282E-03     21.0747E-03
              85             713     18.1282E-03     21.0747E-03
             101             713     18.1282E-03     21.0747E-03
              84             713     18.1282E-03     21.0747E-03
              86             714     20.1707E-03     23.4428E-03
              85             714     20.1707E-03     23.4428E-03
             101             714     20.1707E-03     23.4428E-03
             102             714     20.1707E-03     23.4428E-03
              86             715     22.5339E-03     25.9767E-03
             102             715     22.5339E-03     25.9767E-03
             103             715     22.5339E-03     25.9767E-03
              87             715     22.5339E-03     25.9767E-03
             103             716     25.0589E-03     28.6314E-03
             104             716     25.0589E-03     28.6314E-03
              87             716     25.0589E-03     28.6314E-03
              88             716     25.0589E-03     28.6314E-03
             104             717     27.6814E-03     31.3444E-03
              89             717     27.6814E-03     31.3444E-03
              88             717     27.6814E-03     31.3444E-03
             105             717     27.6814E-03     31.3444E-03
              89             718     30.3856E-03     34.1275E-03
             106             718     30.3856E-03     34.1275E-03
             105             718     30.3856E-03     34.1275E-03
              90             718     30.3856E-03     34.1275E-03
              91             719     33.1407E-03     36.9705E-03
             107             719     33.1407E-03     36.9705E-03
              90             719     33.1407E-03     36.9705E-03
             106             719     33.1407E-03     36.9705E-03
             108             720     36.0779E-03     39.9982E-03
             107             720     36.0779E-03     39.9982E-03
              91             720     36.0779E-03     39.9982E-03
              92             720     36.0779E-03     39.9982E-03
             108             721     39.3407E-03     43.4039E-03
              93             721     39.3407E-03     43.4039E-03
             109             721     39.3407E-03     43.4039E-03
              92             721     39.3407E-03     43.4039E-03
              94             722     44.0162E-03     47.9129E-03
              93             722     44.0162E-03     47.9129E-03
             109             722     44.0162E-03     47.9129E-03
             110             722     44.0162E-03     47.9129E-03
             111             723     53.6174E-03     56.2526E-03
              94             723     53.6174E-03     56.2526E-03
              95             723     53.6174E-03     56.2526E-03
             110             723     53.6174E-03     56.2526E-03
              96             724     69.1616E-03     69.4991E-03
             112             724     69.1616E-03     69.4991E-03
             111             724     69.1616E-03     69.4991E-03
              95             724     69.1616E-03     69.4991E-03
             114             725     13.2929E-03     16.9410E-03
              98             725     13.2929E-03     16.9410E-03
              97             725     13.2929E-03     16.9410E-03
             113             725     13.2929E-03     16.9410E-03
              98             726     13.1151E-03     17.1071E-03
              99             726     13.1151E-03     17.1071E-03
             114             726     13.1151E-03     17.1071E-03
             115             726     13.1151E-03     17.1071E-03
             116             727     14.3891E-03     18.7119E-03
             115             727     14.3891E-03     18.7119E-03
             100             727     14.3891E-03     18.7119E-03
              99             727     14.3891E-03     18.7119E-03
             100             728     16.0805E-03     20.8894E-03
             116             728     16.0805E-03     20.8894E-03
             117             728     16.0805E-03     20.8894E-03
             101             728     16.0805E-03     20.8894E-03
             117             729     18.1616E-03     23.3612E-03
             101             729     18.1616E-03     23.3612E-03
             102             729     18.1616E-03     23.3612E-03
             118             729     18.1616E-03     23.3612E-03
             102             730     20.5129E-03     25.9675E-03
             118             730     20.5129E-03     25.9675E-03
             119             730     20.5129E-03     25.9675E-03
             103             730     20.5129E-03     25.9675E-03
             119             731     23.0227E-03     28.6306E-03
             120             731     23.0227E-03     28.6306E-03
             104             731     23.0227E-03     28.6306E-03
             103             731     23.0227E-03     28.6306E-03
             121             732     25.6133E-03     31.3363E-03
             104             732     25.6133E-03     31.3363E-03
             105             732     25.6133E-03     31.3363E-03
             120             732     25.6133E-03     31.3363E-03
             121             733     28.2406E-03     34.0318E-03
             122             733     28.2406E-03     34.0318E-03
             105             733     28.2406E-03     34.0318E-03
             106             733     28.2406E-03     34.0318E-03
             123             734     30.9669E-03     36.8165E-03
             122             734     30.9669E-03     36.8165E-03
             106             734     30.9669E-03     36.8165E-03
             107             734     30.9669E-03     36.8165E-03
             124             735     33.8431E-03     39.7478E-03
             108             735     33.8431E-03     39.7478E-03
             123             735     33.8431E-03     39.7478E-03
             107             735     33.8431E-03     39.7478E-03
             109             736     37.5500E-03     43.4581E-03
             125             736     37.5500E-03     43.4581E-03
             124             736     37.5500E-03     43.4581E-03
             108             736     37.5500E-03     43.4581E-03
             110             737     42.7790E-03     48.7668E-03
             109             737     42.7790E-03     48.7668E-03
             126             737     42.7790E-03     48.7668E-03
             125             737     42.7790E-03     48.7668E-03
             111             738     52.8550E-03     58.9569E-03
             126             738     52.8550E-03     58.9569E-03
             110             738     52.8550E-03     58.9569E-03
             127             738     52.8550E-03     58.9569E-03
             128             739     75.1429E-03     80.2928E-03
             127             739     75.1429E-03     80.2928E-03
             112             739     75.1429E-03     80.2928E-03
             111             739     75.1429E-03     80.2928E-03
             113             740     20.4517E-03     24.4141E-03
             129             740     20.4517E-03     24.4141E-03
             130             740     20.4517E-03     24.4141E-03
             114             740     20.4517E-03     24.4141E-03
             114             741     23.4348E-03     24.7633E-03
             115             741     23.4348E-03     24.7633E-03
             130             741     23.4348E-03     24.7633E-03
             131             741     23.4348E-03     24.7633E-03
             131             742     26.4886E-03     27.4084E-03
             116             742     26.4886E-03     27.4084E-03
             115             742     26.4886E-03     27.4084E-03
             132             742     26.4886E-03     27.4084E-03
             117             743     29.9529E-03     30.9813E-03
             133             743     29.9529E-03     30.9813E-03
             132             743     29.9529E-03     30.9813E-03
             116             743     29.9529E-03     30.9813E-03
             133             744     33.8644E-03     34.9024E-03
             117             744     33.8644E-03     34.9024E-03
             134             744     33.8644E-03     34.9024E-03
             118             744     33.8644E-03     34.9024E-03
             134             745     38.0190E-03     39.1048E-03
             118             745     38.0190E-03     39.1048E-03
             135             745     38.0190E-03     39.1048E-03
             119             745     38.0190E-03     39.1048E-03
             135             746     42.3266E-03     43.3981E-03
             119             746     42.3266E-03     43.3981E-03
             120             746     42.3266E-03     43.3981E-03
             136             746     42.3266E-03     43.3981E-03
             136             747     46.7001E-03     47.7775E-03
             120             747     46.7001E-03     47.7775E-03
             121             747     46.7001E-03     47.7775E-03
             137             747     46.7001E-03     47.7775E-03
             122             748     51.0713E-03     52.1055E-03
             121             748     51.0713E-03     52.1055E-03
             137             748     51.0713E-03     52.1055E-03
             138             748     51.0713E-03     52.1055E-03
             139             749     55.4144E-03     56.4008E-03
             123             749     55.4144E-03     56.4008E-03
             122             749     55.4144E-03     56.4008E-03
             138             749     55.4144E-03     56.4008E-03
             140             750     59.7209E-03     60.5844E-03
             123             750     59.7209E-03     60.5844E-03
             124             750     59.7209E-03     60.5844E-03
             139             750     59.7209E-03     60.5844E-03
             140             751     63.9431E-03     64.6547E-03
             124             751     63.9431E-03     64.6547E-03
             141             751     63.9431E-03     64.6547E-03
             125             751     63.9431E-03     64.6547E-03
             142             752     68.4404E-03     68.8244E-03
             125             752     68.4404E-03     68.8244E-03
             141             752     68.4404E-03     68.8244E-03
             126             752     68.4404E-03     68.8244E-03
             143             753     73.0292E-03     73.5032E-03
             126             753     73.0292E-03     73.5032E-03
             142             753     73.0292E-03     73.5032E-03
             127             753     73.0292E-03     73.5032E-03
             144             754     80.7082E-03     82.7720E-03
             143             754     80.7082E-03     82.7720E-03
             128             754     80.7082E-03     82.7720E-03
             127             754     80.7082E-03     82.7720E-03
             146             755     28.3988E-03     30.3002E-03
             130             755     28.3988E-03     30.3002E-03
             129             755     28.3988E-03     30.3002E-03
             145             755     28.3988E-03     30.3002E-03
             131             756     32.5048E-03     31.4406E-03
             146             756     32.5048E-03     31.4406E-03
             130             756     32.5048E-03     31.4406E-03
             147             756     32.5048E-03     31.4406E-03
             132             757     37.6413E-03     35.2892E-03
             131             757     37.6413E-03     35.2892E-03
             148             757     37.6413E-03     35.2892E-03
             147             757     37.6413E-03     35.2892E-03
             133             758     43.2258E-03     40.4251E-03
             148             758     43.2258E-03     40.4251E-03
             149             758     43.2258E-03     40.4251E-03
             132             758     43.2258E-03     40.4251E-03
             150             759     49.1248E-03     46.1138E-03
             134             759     49.1248E-03     46.1138E-03
             133             759     49.1248E-03     46.1138E-03
             149             759     49.1248E-03     46.1138E-03
             150             760     55.2860E-03     52.1366E-03
             151             760     55.2860E-03     52.1366E-03
             134             760     55.2860E-03     52.1366E-03
             135             760     55.2860E-03     52.1366E-03
             136             761     61.6114E-03     58.3521E-03
             151             761     61.6114E-03     58.3521E-03
             135             761     61.6114E-03     58.3521E-03
             152             761     61.6114E-03     58.3521E-03
             152             762     68.0000E-03     64.6725E-03
             153             762     68.0000E-03     64.6725E-03
             136             762     68.0000E-03     64.6725E-03
             137             762     68.0000E-03     64.6725E-03
             137             763     74.4596E-03     71.0268E-03
             154             763     74.4596E-03     71.0268E-03
             153             763     74.4596E-03     71.0268E-03
             138             763     74.4596E-03     71.0268E-03
             139             764     80.8258E-03     77.3357E-03
             154             764     80.8258E-03     77.3357E-03
             155             764     80.8258E-03     77.3357E-03
             138             764     80.8258E-03     77.3357E-03
             155             765     87.0894E-03     83.4093E-03
             156             765     87.0894E-03     83.4093E-03
             139             765     87.0894E-03     83.4093E-03
             140             765     87.0894E-03     83.4093E-03
             140             766     92.7098E-03     88.8844E-03
             141             766     92.7098E-03     88.8844E-03
             156             766     92.7098E-03     88.8844E-03
             157             766     92.7098E-03     88.8844E-03
             141             767     96.8009E-03     92.8623E-03
             158             767     96.8009E-03     92.8623E-03
             142             767     96.8009E-03     92.8623E-03
             157             767     96.8009E-03     92.8623E-03
             143             768     97.4095E-03     93.3703E-03
             158             768     97.4095E-03     93.3703E-03
             159             768     97.4095E-03     93.3703E-03
             142             768     97.4095E-03     93.3703E-03
             160             769     91.7948E-03     88.4154E-03
             143             769     91.7948E-03     88.4154E-03
             144             769     91.7948E-03     88.4154E-03
             159             769     91.7948E-03     88.4154E-03
             145             770     25.1216E-03     25.9235E-03
             161             770     25.1216E-03     25.9235E-03
             162             770     25.1216E-03     25.9235E-03
             146             770     25.1216E-03     25.9235E-03
             163             771     28.2747E-03     29.2011E-03
             147             771     28.2747E-03     29.2011E-03
             146             771     28.2747E-03     29.2011E-03
             162             771     28.2747E-03     29.2011E-03
             147             772     33.8813E-03     33.6393E-03
             148             772     33.8813E-03     33.6393E-03
             164             772     33.8813E-03     33.6393E-03
             163             772     33.8813E-03     33.6393E-03
             149             773     39.9303E-03     39.3467E-03
             165             773     39.9303E-03     39.3467E-03
             148             773     39.9303E-03     39.3467E-03
             164             773     39.9303E-03     39.3467E-03
             149             774     46.2369E-03     45.5905E-03
             150             774     46.2369E-03     45.5905E-03
             166             774     46.2369E-03     45.5905E-03
             165             774     46.2369E-03     45.5905E-03
             151             775     52.7868E-03     52.1057E-03
             166             775     52.7868E-03     52.1057E-03
             150             775     52.7868E-03     52.1057E-03
             167             775     52.7868E-03     52.1057E-03
             151             776     59.4607E-03     58.7910E-03
             168             776     59.4607E-03     58.7910E-03
             167             776     59.4607E-03     58.7910E-03
             152             776     59.4607E-03     58.7910E-03
             153             777     66.2875E-03     65.5988E-03
             168             777     66.2875E-03     65.5988E-03
             169             777     66.2875E-03     65.5988E-03
             152             777     66.2875E-03     65.5988E-03
             154             778     73.2037E-03     72.5254E-03
             170             778     73.2037E-03     72.5254E-03
             169             778     73.2037E-03     72.5254E-03
             153             778     73.2037E-03     72.5254E-03
             154             779     80.2699E-03     79.5792E-03
             155             779     80.2699E-03     79.5792E-03
             170             779     80.2699E-03     79.5792E-03
             171             779     80.2699E-03     79.5792E-03
             155             780     87.3221E-03     86.7042E-03
             171             780     87.3221E-03     86.7042E-03
             156             780     87.3221E-03     86.7042E-03
             172             780     87.3221E-03     86.7042E-03
             173             781     94.3610E-03     93.7958E-03
             157             781     94.3610E-03     93.7958E-03
             156             781     94.3610E-03     93.7958E-03
             172             781     94.3610E-03     93.7958E-03
             174             782     100.417E-03     100.265E-03
             158             782     100.417E-03     100.265E-03
             173             782     100.417E-03     100.265E-03
             157             782     100.417E-03     100.265E-03
             159             783     102.632E-03     103.863E-03
             174             783     102.632E-03     103.863E-03
             175             783     102.632E-03     103.863E-03
             158             783     102.632E-03     103.863E-03
             176             784     104.095E-03     105.342E-03
             175             784     104.095E-03     105.342E-03
             160             784     104.095E-03     105.342E-03
             159             784     104.095E-03     105.342E-03
             178             785     21.6274E-03     21.7393E-03
             162             785     21.6274E-03     21.7393E-03
             177             785     21.6274E-03     21.7393E-03
             161             785     21.6274E-03     21.7393E-03
             178             786     25.0526E-03     26.8454E-03
             162             786     25.0526E-03     26.8454E-03
             179             786     25.0526E-03     26.8454E-03
             163             786     25.0526E-03     26.8454E-03
             179             787     30.3504E-03     32.5035E-03
             180             787     30.3504E-03     32.5035E-03
             163             787     30.3504E-03     32.5035E-03
             164             787     30.3504E-03     32.5035E-03
             181             788     36.7279E-03     38.7040E-03
             164             788     36.7279E-03     38.7040E-03
             180             788     36.7279E-03     38.7040E-03
             165             788     36.7279E-03     38.7040E-03
             166             789     43.4367E-03     45.4004E-03
             182             789     43.4367E-03     45.4004E-03
             165             789     43.4367E-03     45.4004E-03
             181             789     43.4367E-03     45.4004E-03
             182             790     50.2615E-03     52.2716E-03
             167             790     50.2615E-03     52.2716E-03
             166             790     50.2615E-03     52.2716E-03
             183             790     50.2615E-03     52.2716E-03
             167             791     57.2266E-03     59.2646E-03
             184             791     57.2266E-03     59.2646E-03
             168             791     57.2266E-03     59.2646E-03
             183             791     57.2266E-03     59.2646E-03
             184             792     64.2834E-03     66.3540E-03
             185             792     64.2834E-03     66.3540E-03
             168             792     64.2834E-03     66.3540E-03
             169             792     64.2834E-03     66.3540E-03
             169             793     71.4459E-03     73.5515E-03
             170             793     71.4459E-03     73.5515E-03
             185             793     71.4459E-03     73.5515E-03
             186             793     71.4459E-03     73.5515E-03
             170             794     78.7180E-03     80.8816E-03
             171             794     78.7180E-03     80.8816E-03
             186             794     78.7180E-03     80.8816E-03
             187             794     78.7180E-03     80.8816E-03
             172             795     86.1169E-03     88.4376E-03
             187             795     86.1169E-03     88.4376E-03
             188             795     86.1169E-03     88.4376E-03
             171             795     86.1169E-03     88.4376E-03
             189             796     93.5755E-03     96.1765E-03
             188             796     93.5755E-03     96.1765E-03
             173             796     93.5755E-03     96.1765E-03
             172             796     93.5755E-03     96.1765E-03
             190             797     101.407E-03     104.278E-03
             173             797     101.407E-03     104.278E-03
             189             797     101.407E-03     104.278E-03
             174             797     101.407E-03     104.278E-03
             175             798     108.918E-03     111.965E-03
             190             798     108.918E-03     111.965E-03
             174             798     108.918E-03     111.965E-03
             191             798     108.918E-03     111.965E-03
             176             799     116.818E-03     119.824E-03
             175             799     116.818E-03     119.824E-03
             192             799     116.818E-03     119.824E-03
             191             799     116.818E-03     119.824E-03
             193             800     18.0578E-03     19.8441E-03
             194             800     18.0578E-03     19.8441E-03
             177             800     18.0578E-03     19.8441E-03
             178             800     18.0578E-03     19.8441E-03
             179             801     21.6014E-03     25.2882E-03
             194             801     21.6014E-03     25.2882E-03
             195             801     21.6014E-03     25.2882E-03
             178             801     21.6014E-03     25.2882E-03
             196             802     27.1396E-03     31.7547E-03
             195             802     27.1396E-03     31.7547E-03
             179             802     27.1396E-03     31.7547E-03
             180             802     27.1396E-03     31.7547E-03
             180             803     33.7809E-03     38.5186E-03
             197             803     33.7809E-03     38.5186E-03
             181             803     33.7809E-03     38.5186E-03
             196             803     33.7809E-03     38.5186E-03
             197             804     40.6885E-03     45.4770E-03
             198             804     40.6885E-03     45.4770E-03
             181             804     40.6885E-03     45.4770E-03
             182             804     40.6885E-03     45.4770E-03
             198             805     47.7161E-03     52.5519E-03
             182             805     47.7161E-03     52.5519E-03
             183             805     47.7161E-03     52.5519E-03
             199             805     47.7161E-03     52.5519E-03
             199             806     54.8051E-03     59.6734E-03
             183             806     54.8051E-03     59.6734E-03
             200             806     54.8051E-03     59.6734E-03
             184             806     54.8051E-03     59.6734E-03
             200             807     61.9241E-03     66.8205E-03
             184             807     61.9241E-03     66.8205E-03
             201             807     61.9241E-03     66.8205E-03
             185             807     61.9241E-03     66.8205E-03
             201             808     69.0961E-03     74.0036E-03
             202             808     69.0961E-03     74.0036E-03
             185             808     69.0961E-03     74.0036E-03
             186             808     69.0961E-03     74.0036E-03
             203             809     76.2644E-03     81.2387E-03
             186             809     76.2644E-03     81.2387E-03
             202             809     76.2644E-03     81.2387E-03
             187             809     76.2644E-03     81.2387E-03
             203             810     83.5757E-03     88.6195E-03
             204             810     83.5757E-03     88.6195E-03
             188             810     83.5757E-03     88.6195E-03
             187             810     83.5757E-03     88.6195E-03
             188             811     91.0949E-03     96.3944E-03
             205             811     91.0949E-03     96.3944E-03
             204             811     91.0949E-03     96.3944E-03
             189             811     91.0949E-03     96.3944E-03
             205             812     99.4916E-03     104.972E-03
             206             812     99.4916E-03     104.972E-03
             190             812     99.4916E-03     104.972E-03
             189             812     99.4916E-03     104.972E-03
             191             813     112.493E-03     116.790E-03
             206             813     112.493E-03     116.790E-03
             207             813     112.493E-03     116.790E-03
             190             813     112.493E-03     116.790E-03
             191             814     128.938E-03     130.597E-03
             207             814     128.938E-03     130.597E-03
             208             814     128.938E-03     130.597E-03
             192             814     128.938E-03     130.597E-03
             193             815     14.0740E-03     19.3730E-03
             210             815     14.0740E-03     19.3730E-03
             194             815     14.0740E-03     19.3730E-03
             209             815     14.0740E-03     19.3730E-03
             194             816     18.0896E-03     24.9886E-03
             195             816     18.0896E-03     24.9886E-03
             210             816     18.0896E-03     24.9886E-03
             211             816     18.0896E-03     24.9886E-03
             212             817     24.3525E-03     31.6794E-03
             195             817     24.3525E-03     31.6794E-03
             196             817     24.3525E-03     31.6794E-03
             211             817     24.3525E-03     31.6794E-03
             197             818     31.1025E-03     38.7764E-03
             212             818     31.1025E-03     38.7764E-03
             213             818     31.1025E-03     38.7764E-03
             196             818     31.1025E-03     38.7764E-03
             198             819     38.0989E-03     45.8477E-03
             197             819     38.0989E-03     45.8477E-03
             213             819     38.0989E-03     45.8477E-03
             214             819     38.0989E-03     45.8477E-03
             199             820     45.1920E-03     52.9614E-03
             214             820     45.1920E-03     52.9614E-03
             198             820     45.1920E-03     52.9614E-03
             215             820     45.1920E-03     52.9614E-03
             199             821     52.2612E-03     60.0394E-03
             200             821     52.2612E-03     60.0394E-03
             215             821     52.2612E-03     60.0394E-03
             216             821     52.2612E-03     60.0394E-03
             216             822     59.3269E-03     67.0979E-03
             217             822     59.3269E-03     67.0979E-03
             201             822     59.3269E-03     67.0979E-03
             200             822     59.3269E-03     67.0979E-03
             217             823     66.3157E-03     74.0818E-03
             202             823     66.3157E-03     74.0818E-03
             201             823     66.3157E-03     74.0818E-03
             218             823     66.3157E-03     74.0818E-03
             202             824     73.3244E-03     81.0495E-03
             219             824     73.3244E-03     81.0495E-03
             218             824     73.3244E-03     81.0495E-03
             203             824     73.3244E-03     81.0495E-03
             220             825     80.3268E-03     88.0097E-03
             204             825     80.3268E-03     88.0097E-03
             219             825     80.3268E-03     88.0097E-03
             203             825     80.3268E-03     88.0097E-03
             220             826     87.8624E-03     95.4114E-03
             221             826     87.8624E-03     95.4114E-03
             205             826     87.8624E-03     95.4114E-03
             204             826     87.8624E-03     95.4114E-03
             221             827     96.5245E-03     103.925E-03
             206             827     96.5245E-03     103.925E-03
             222             827     96.5245E-03     103.925E-03
             205             827     96.5245E-03     103.925E-03
             222             828     109.539E-03     116.799E-03
             223             828     109.539E-03     116.799E-03
             206             828     109.539E-03     116.799E-03
             207             828     109.539E-03     116.799E-03
             223             829     133.865E-03     139.550E-03
             224             829     133.865E-03     139.550E-03
             208             829     133.865E-03     139.550E-03
             207             829     133.865E-03     139.550E-03
             226             830     27.1230E-03     32.2126E-03
             209             830     27.1230E-03     32.2126E-03
             225             830     27.1230E-03     32.2126E-03
             210             830     27.1230E-03     32.2126E-03
             227             831     33.1867E-03     36.5372E-03
             210             831     33.1867E-03     36.5372E-03
             226             831     33.1867E-03     36.5372E-03
             211             831     33.1867E-03     36.5372E-03
             228             832     40.1229E-03     43.4422E-03
             212             832     40.1229E-03     43.4422E-03
             211             832     40.1229E-03     43.4422E-03
             227             832     40.1229E-03     43.4422E-03
             228             833     47.7603E-03     51.1882E-03
             229             833     47.7603E-03     51.1882E-03
             212             833     47.7603E-03     51.1882E-03
             213             833     47.7603E-03     51.1882E-03
             229             834     55.8613E-03     59.2738E-03
             213             834     55.8613E-03     59.2738E-03
             214             834     55.8613E-03     59.2738E-03
             230             834     55.8613E-03     59.2738E-03
             215             835     64.1521E-03     67.5184E-03
             214             835     64.1521E-03     67.5184E-03
             230             835     64.1521E-03     67.5184E-03
             231             835     64.1521E-03     67.5184E-03
             216             836     72.5500E-03     75.8321E-03
             231             836     72.5500E-03     75.8321E-03
             232             836     72.5500E-03     75.8321E-03
             215             836     72.5500E-03     75.8321E-03
             232             837     80.8970E-03     84.1130E-03
             233             837     80.8970E-03     84.1130E-03
             217             837     80.8970E-03     84.1130E-03
             216             837     80.8970E-03     84.1130E-03
             233             838     89.1875E-03     92.2713E-03
             234             838     89.1875E-03     92.2713E-03
             217             838     89.1875E-03     92.2713E-03
             218             838     89.1875E-03     92.2713E-03
             235             839     97.2700E-03     100.219E-03
             234             839     97.2700E-03     100.219E-03
             218             839     97.2700E-03     100.219E-03
             219             839     97.2700E-03     100.219E-03
             220             840     105.173E-03     107.749E-03
             235             840     105.173E-03     107.749E-03
             236             840     105.173E-03     107.749E-03
             219             840     105.173E-03     107.749E-03
             236             841     112.770E-03     114.895E-03
             237             841     112.770E-03     114.895E-03
             220             841     112.770E-03     114.895E-03
             221             841     112.770E-03     114.895E-03
             222             842     120.364E-03     121.714E-03
             237             842     120.364E-03     121.714E-03
             238             842     120.364E-03     121.714E-03
             221             842     120.364E-03     121.714E-03
             222             843     127.943E-03     128.752E-03
             223             843     127.943E-03     128.752E-03
             238             843     127.943E-03     128.752E-03
             239             843     127.943E-03     128.752E-03
             240             844     138.636E-03     141.244E-03
             224             844     138.636E-03     141.244E-03
             223             844     138.636E-03     141.244E-03
             239             844     138.636E-03     141.244E-03
             242             845     39.2781E-03     43.0018E-03
             241             845     39.2781E-03     43.0018E-03
             225             845     39.2781E-03     43.0018E-03
             226             845     39.2781E-03     43.0018E-03
             227             846     46.4089E-03     46.5013E-03
             242             846     46.4089E-03     46.5013E-03
             226             846     46.4089E-03     46.5013E-03
             243             846     46.4089E-03     46.5013E-03
             227             847     54.7743E-03     53.5945E-03
             243             847     54.7743E-03     53.5945E-03
             244             847     54.7743E-03     53.5945E-03
             228             847     54.7743E-03     53.5945E-03
             228             848     63.8667E-03     62.3818E-03
             229             848     63.8667E-03     62.3818E-03
             244             848     63.8667E-03     62.3818E-03
             245             848     63.8667E-03     62.3818E-03
             230             849     73.4299E-03     71.8442E-03
             229             849     73.4299E-03     71.8442E-03
             245             849     73.4299E-03     71.8442E-03
             246             849     73.4299E-03     71.8442E-03
             247             850     83.3540E-03     81.6784E-03
             230             850     83.3540E-03     81.6784E-03
             231             850     83.3540E-03     81.6784E-03
             246             850     83.3540E-03     81.6784E-03
             232             851     93.4361E-03     91.7000E-03
             248             851     93.4361E-03     91.7000E-03
             231             851     93.4361E-03     91.7000E-03
             247             851     93.4361E-03     91.7000E-03
             249             852     103.633E-03     101.787E-03
             248             852     103.633E-03     101.787E-03
             232             852     103.633E-03     101.787E-03
             233             852     103.633E-03     101.787E-03
             250             853     113.777E-03     111.842E-03
             233             853     113.777E-03     111.842E-03
             249             853     113.777E-03     111.842E-03
             234             853     113.777E-03     111.842E-03
             250             854     123.820E-03     121.666E-03
             235             854     123.820E-03     121.666E-03
             251             854     123.820E-03     121.666E-03
             234             854     123.820E-03     121.666E-03
             235             855     133.465E-03     131.084E-03
             251             855     133.465E-03     131.084E-03
             252             855     133.465E-03     131.084E-03
             236             855     133.465E-03     131.084E-03
             237             856     142.224E-03     139.519E-03
             236             856     142.224E-03     139.519E-03
             252             856     142.224E-03     139.519E-03
             253             856     142.224E-03     139.519E-03
             253             857     149.447E-03     146.308E-03
             237             857     149.447E-03     146.308E-03
             254             857     149.447E-03     146.308E-03
             238             857     149.447E-03     146.308E-03
             238             858     153.082E-03     150.072E-03
             255             858     153.082E-03     150.072E-03
             254             858     153.082E-03     150.072E-03
             239             858     153.082E-03     150.072E-03
             239             859     151.683E-03     148.392E-03
             256             859     151.683E-03     148.392E-03
             240             859     151.683E-03     148.392E-03
             255             859     151.683E-03     148.392E-03
             241             860     33.6660E-03     36.9270E-03
             242             860     33.6660E-03     36.9270E-03
             257             860     33.6660E-03     36.9270E-03
             258             860     33.6660E-03     36.9270E-03
             258             861     40.5722E-03     43.3819E-03
             259             861     40.5722E-03     43.3819E-03
             242             861     40.5722E-03     43.3819E-03
             243             861     40.5722E-03     43.3819E-03
             244             862     50.2434E-03     51.2025E-03
             260             862     50.2434E-03     51.2025E-03
             243             862     50.2434E-03     51.2025E-03
             259             862     50.2434E-03     51.2025E-03
             260             863     60.3657E-03     60.7398E-03
             261             863     60.3657E-03     60.7398E-03
             244             863     60.3657E-03     60.7398E-03
             245             863     60.3657E-03     60.7398E-03
             262             864     70.7331E-03     70.9406E-03
             245             864     70.7331E-03     70.9406E-03
             261             864     70.7331E-03     70.9406E-03
             246             864     70.7331E-03     70.9406E-03
             246             865     81.3260E-03     81.5010E-03
             262             865     81.3260E-03     81.5010E-03
             247             865     81.3260E-03     81.5010E-03
             263             865     81.3260E-03     81.5010E-03
             264             866     92.1063E-03     92.2830E-03
             263             866     92.1063E-03     92.2830E-03
             248             866     92.1063E-03     92.2830E-03
             247             866     92.1063E-03     92.2830E-03
             265             867     103.019E-03     103.210E-03
             264             867     103.019E-03     103.210E-03
             249             867     103.019E-03     103.210E-03
             248             867     103.019E-03     103.210E-03
             249             868     114.079E-03     114.259E-03
             266             868     114.079E-03     114.259E-03
             265             868     114.079E-03     114.259E-03
             250             868     114.079E-03     114.259E-03
             251             869     125.146E-03     125.392E-03
             250             869     125.146E-03     125.392E-03
             266             869     125.146E-03     125.392E-03
             267             869     125.146E-03     125.392E-03
             268             870     136.211E-03     136.495E-03
             267             870     136.211E-03     136.495E-03
             251             870     136.211E-03     136.495E-03
             252             870     136.211E-03     136.495E-03
             269             871     146.716E-03     147.294E-03
             253             871     146.716E-03     147.294E-03
             268             871     146.716E-03     147.294E-03
             252             871     146.716E-03     147.294E-03
             253             872     155.663E-03     156.950E-03
             254             872     155.663E-03     156.950E-03
             270             872     155.663E-03     156.950E-03
             269             872     155.663E-03     156.950E-03
             271             873     161.451E-03     163.571E-03
             255             873     161.451E-03     163.571E-03
             270             873     161.451E-03     163.571E-03
             254             873     161.451E-03     163.571E-03
             271             874     165.371E-03     167.716E-03
             255             874     165.371E-03     167.716E-03
             272             874     165.371E-03     167.716E-03
             256             874     165.371E-03     167.716E-03
             273             875     28.6160E-03     30.8065E-03
             258             875     28.6160E-03     30.8065E-03
             274             875     28.6160E-03     30.8065E-03
             257             875     28.6160E-03     30.8065E-03
             258             876     36.4076E-03     39.9868E-03
             259             876     36.4076E-03     39.9868E-03
             275             876     36.4076E-03     39.9868E-03
             274             876     36.4076E-03     39.9868E-03
             275             877     46.4258E-03     49.5163E-03
             260             877     46.4258E-03     49.5163E-03
             259             877     46.4258E-03     49.5163E-03
             276             877     46.4258E-03     49.5163E-03
             276             878     57.2417E-03     59.6235E-03
             260             878     57.2417E-03     59.6235E-03
             261             878     57.2417E-03     59.6235E-03
             277             878     57.2417E-03     59.6235E-03
             262             879     68.1891E-03     70.4086E-03
             261             879     68.1891E-03     70.4086E-03
             278             879     68.1891E-03     70.4086E-03
             277             879     68.1891E-03     70.4086E-03
             263             880     79.2921E-03     81.4821E-03
             279             880     79.2921E-03     81.4821E-03
             262             880     79.2921E-03     81.4821E-03
             278             880     79.2921E-03     81.4821E-03
             263             881     90.5259E-03     92.7485E-03
             280             881     90.5259E-03     92.7485E-03
             279             881     90.5259E-03     92.7485E-03
             264             881     90.5259E-03     92.7485E-03
             280             882     101.901E-03     104.186E-03
             281             882     101.901E-03     104.186E-03
             264             882     101.901E-03     104.186E-03
             265             882     101.901E-03     104.186E-03
             265             883     113.402E-03     115.794E-03
             282             883     113.402E-03     115.794E-03
             266             883     113.402E-03     115.794E-03
             281             883     113.402E-03     115.794E-03
             266             884     125.085E-03     127.644E-03
             282             884     125.085E-03     127.644E-03
             267             884     125.085E-03     127.644E-03
             283             884     125.085E-03     127.644E-03
             267             885     136.781E-03     139.688E-03
             268             885     136.781E-03     139.688E-03
             283             885     136.781E-03     139.688E-03
             284             885     136.781E-03     139.688E-03
             268             886     148.682E-03     151.997E-03
             285             886     148.682E-03     151.997E-03
             269             886     148.682E-03     151.997E-03
             284             886     148.682E-03     151.997E-03
             286             887     159.852E-03     163.912E-03
             270             887     159.852E-03     163.912E-03
             269             887     159.852E-03     163.912E-03
             285             887     159.852E-03     163.912E-03
             286             888     169.334E-03     174.146E-03
             287             888     169.334E-03     174.146E-03
             271             888     169.334E-03     174.146E-03
             270             888     169.334E-03     174.146E-03
             287             889     179.230E-03     182.479E-03
             288             889     179.230E-03     182.479E-03
             271             889     179.230E-03     182.479E-03
             272             889     179.230E-03     182.479E-03
             289             890     24.0602E-03     27.7419E-03
             290             890     24.0602E-03     27.7419E-03
             273             890     24.0602E-03     27.7419E-03
             274             890     24.0602E-03     27.7419E-03
             291             891     33.0906E-03     37.5414E-03
             275             891     33.0906E-03     37.5414E-03
             274             891     33.0906E-03     37.5414E-03
             290             891     33.0906E-03     37.5414E-03
             291             892     43.4888E-03     48.1502E-03
             275             892     43.4888E-03     48.1502E-03
             292             892     43.4888E-03     48.1502E-03
             276             892     43.4888E-03     48.1502E-03
             292             893     54.4680E-03     58.9146E-03
             277             893     54.4680E-03     58.9146E-03
             293             893     54.4680E-03     58.9146E-03
             276             893     54.4680E-03     58.9146E-03
             293             894     65.7512E-03     70.0597E-03
             277             894     65.7512E-03     70.0597E-03
             294             894     65.7512E-03     70.0597E-03
             278             894     65.7512E-03     70.0597E-03
             279             895     77.0965E-03     81.4029E-03
             294             895     77.0965E-03     81.4029E-03
             278             895     77.0965E-03     81.4029E-03
             295             895     77.0965E-03     81.4029E-03
             280             896     88.5204E-03     92.8641E-03
             279             896     88.5204E-03     92.8641E-03
             295             896     88.5204E-03     92.8641E-03
             296             896     88.5204E-03     92.8641E-03
             281             897     100.030E-03     104.436E-03
             280             897     100.030E-03     104.436E-03
             296             897     100.030E-03     104.436E-03
             297             897     100.030E-03     104.436E-03
             282             898     111.627E-03     116.158E-03
             297             898     111.627E-03     116.158E-03
             281             898     111.627E-03     116.158E-03
             298             898     111.627E-03     116.158E-03
             282             899     123.352E-03     128.067E-03
             283             899     123.352E-03     128.067E-03
             298             899     123.352E-03     128.067E-03
             299             899     123.352E-03     128.067E-03
             283             900     135.337E-03     140.397E-03
             299             900     135.337E-03     140.397E-03
             284             900     135.337E-03     140.397E-03
             300             900     135.337E-03     140.397E-03
             284             901     147.607E-03     153.143E-03
             285             901     147.607E-03     153.143E-03
             301             901     147.607E-03     153.143E-03
             300             901     147.607E-03     153.143E-03
             286             902     161.422E-03     166.974E-03
             302             902     161.422E-03     166.974E-03
             285             902     161.422E-03     166.974E-03
             301             902     161.422E-03     166.974E-03
             287             903     176.423E-03     181.454E-03
             302             903     176.423E-03     181.454E-03
             303             903     176.423E-03     181.454E-03
             286             903     176.423E-03     181.454E-03
             287             904     190.754E-03     195.410E-03
             288             904     190.754E-03     195.410E-03
             304             904     190.754E-03     195.410E-03
             303             904     190.754E-03     195.410E-03
             305             905     21.0296E-03     26.3945E-03
             290             905     21.0296E-03     26.3945E-03
             306             905     21.0296E-03     26.3945E-03
             289             905     21.0296E-03     26.3945E-03
             306             906     30.7053E-03     36.7150E-03
             307             906     30.7053E-03     36.7150E-03
             290             906     30.7053E-03     36.7150E-03
             291             906     30.7053E-03     36.7150E-03
             292             907     41.1261E-03     47.3304E-03
             291             907     41.1261E-03     47.3304E-03
             308             907     41.1261E-03     47.3304E-03
             307             907     41.1261E-03     47.3304E-03
             308             908     52.1552E-03     58.6081E-03
             309             908     52.1552E-03     58.6081E-03
             293             908     52.1552E-03     58.6081E-03
             292             908     52.1552E-03     58.6081E-03
             294             909     63.4252E-03     69.8907E-03
             310             909     63.4252E-03     69.8907E-03
             309             909     63.4252E-03     69.8907E-03
             293             909     63.4252E-03     69.8907E-03
             311             910     74.7679E-03     81.2564E-03
             295             910     74.7679E-03     81.2564E-03
             294             910     74.7679E-03     81.2564E-03
             310             910     74.7679E-03     81.2564E-03
             296             911     86.1418E-03     92.6553E-03
             312             911     86.1418E-03     92.6553E-03
             311             911     86.1418E-03     92.6553E-03
             295             911     86.1418E-03     92.6553E-03
             296             912     97.5126E-03     104.057E-03
             312             912     97.5126E-03     104.057E-03
             313             912     97.5126E-03     104.057E-03
             297             912     97.5126E-03     104.057E-03
             297             913     108.930E-03     115.498E-03
             314             913     108.930E-03     115.498E-03
             298             913     108.930E-03     115.498E-03
             313             913     108.930E-03     115.498E-03
             314             914     120.386E-03     127.064E-03
             298             914     120.386E-03     127.064E-03
             299             914     120.386E-03     127.064E-03
             315             914     120.386E-03     127.064E-03
             299             915     132.143E-03     138.921E-03
             315             915     132.143E-03     138.921E-03
             316             915     132.143E-03     138.921E-03
             300             915     132.143E-03     138.921E-03
             316             916     144.557E-03     151.569E-03
             317             916     144.557E-03     151.569E-03
             301             916     144.557E-03     151.569E-03
             300             916     144.557E-03     151.569E-03
             302             917     158.727E-03     165.763E-03
             301             917     158.727E-03     165.763E-03
             317             917     158.727E-03     165.763E-03
             318             917     158.727E-03     165.763E-03
             302             918     178.696E-03     184.210E-03
             318             918     178.696E-03     184.210E-03
             303             918     178.696E-03     184.210E-03
             319             918     178.696E-03     184.210E-03
             320             919     201.745E-03     204.345E-03
             303             919     201.745E-03     204.345E-03
             319             919     201.745E-03     204.345E-03
             304             919     201.745E-03     204.345E-03
             306             920     20.5861E-03     27.0287E-03
             322             920     20.5861E-03     27.0287E-03
             305             920     20.5861E-03     27.0287E-03
             321             920     20.5861E-03     27.0287E-03
             307             921     29.4611E-03     36.8011E-03
             323             921     29.4611E-03     36.8011E-03
             322             921     29.4611E-03     36.8011E-03
             306             921     29.4611E-03     36.8011E-03
             324             922     39.4992E-03     47.6593E-03
             323             922     39.4992E-03     47.6593E-03
             307             922     39.4992E-03     47.6593E-03
             308             922     39.4992E-03     47.6593E-03
             308             923     50.3541E-03     58.8387E-03
             325             923     50.3541E-03     58.8387E-03
             309             923     50.3541E-03     58.8387E-03
             324             923     50.3541E-03     58.8387E-03
             310             924     61.3614E-03     70.0534E-03
             325             924     61.3614E-03     70.0534E-03
             326             924     61.3614E-03     70.0534E-03
             309             924     61.3614E-03     70.0534E-03
             326             925     72.4937E-03     81.2281E-03
             311             925     72.4937E-03     81.2281E-03
             310             925     72.4937E-03     81.2281E-03
             327             925     72.4937E-03     81.2281E-03
             311             926     83.6003E-03     92.3318E-03
             327             926     83.6003E-03     92.3318E-03
             328             926     83.6003E-03     92.3318E-03
             312             926     83.6003E-03     92.3318E-03
             312             927     94.6758E-03     103.373E-03
             328             927     94.6758E-03     103.373E-03
             329             927     94.6758E-03     103.373E-03
             313             927     94.6758E-03     103.373E-03
             329             928     105.687E-03     114.319E-03
             330             928     105.687E-03     114.319E-03
             313             928     105.687E-03     114.319E-03
             314             928     105.687E-03     114.319E-03
             314             929     116.790E-03     125.280E-03
             330             929     116.790E-03     125.280E-03
             315             929     116.790E-03     125.280E-03
             331             929     116.790E-03     125.280E-03
             316             930     128.055E-03     136.361E-03
             315             930     128.055E-03     136.361E-03
             331             930     128.055E-03     136.361E-03
             332             930     128.055E-03     136.361E-03
             332             931     140.271E-03     148.253E-03
             316             931     140.271E-03     148.253E-03
             333             931     140.271E-03     148.253E-03
             317             931     140.271E-03     148.253E-03
             317             932     154.056E-03     161.744E-03
             333             932     154.056E-03     161.744E-03
             334             932     154.056E-03     161.744E-03
             318             932     154.056E-03     161.744E-03
             318             933     173.014E-03     180.639E-03
             334             933     173.014E-03     180.639E-03
             335             933     173.014E-03     180.639E-03
             319             933     173.014E-03     180.639E-03
             319             934     204.244E-03     210.106E-03
             335             934     204.244E-03     210.106E-03
             320             934     204.244E-03     210.106E-03
             336             934     204.244E-03     210.106E-03
             338             935     37.5354E-03     41.9745E-03
             337             935     37.5354E-03     41.9745E-03
             321             935     37.5354E-03     41.9745E-03
             322             935     37.5354E-03     41.9745E-03
             338             936     46.4671E-03     49.9300E-03
             339             936     46.4671E-03     49.9300E-03
             323             936     46.4671E-03     49.9300E-03
             322             936     46.4671E-03     49.9300E-03
             324             937     56.8558E-03     60.7262E-03
             340             937     56.8558E-03     60.7262E-03
             339             937     56.8558E-03     60.7262E-03
             323             937     56.8558E-03     60.7262E-03
             340             938     68.2849E-03     72.5208E-03
             324             938     68.2849E-03     72.5208E-03
             325             938     68.2849E-03     72.5208E-03
             341             938     68.2849E-03     72.5208E-03
             325             939     80.3136E-03     84.6625E-03
             326             939     80.3136E-03     84.6625E-03
             341             939     80.3136E-03     84.6625E-03
             342             939     80.3136E-03     84.6625E-03
             342             940     92.6081E-03     96.9629E-03
             343             940     92.6081E-03     96.9629E-03
             326             940     92.6081E-03     96.9629E-03
             327             940     92.6081E-03     96.9629E-03
             343             941     105.007E-03     109.292E-03
             328             941     105.007E-03     109.292E-03
             327             941     105.007E-03     109.292E-03
             344             941     105.007E-03     109.292E-03
             329             942     117.353E-03     121.549E-03
             345             942     117.353E-03     121.549E-03
             344             942     117.353E-03     121.549E-03
             328             942     117.353E-03     121.549E-03
             346             943     129.644E-03     133.630E-03
             329             943     129.644E-03     133.630E-03
             330             943     129.644E-03     133.630E-03
             345             943     129.644E-03     133.630E-03
             347             944     141.727E-03     145.473E-03
             330             944     141.727E-03     145.473E-03
             346             944     141.727E-03     145.473E-03
             331             944     141.727E-03     145.473E-03
             332             945     153.755E-03     156.903E-03
             347             945     153.755E-03     156.903E-03
             331             945     153.755E-03     156.903E-03
             348             945     153.755E-03     156.903E-03
             333             946     165.552E-03     168.024E-03
             348             946     165.552E-03     168.024E-03
             332             946     165.552E-03     168.024E-03
             349             946     165.552E-03     168.024E-03
             334             947     177.668E-03     179.082E-03
             350             947     177.668E-03     179.082E-03
             349             947     177.668E-03     179.082E-03
             333             947     177.668E-03     179.082E-03
             351             948     189.964E-03     190.722E-03
             350             948     189.964E-03     190.722E-03
             335             948     189.964E-03     190.722E-03
             334             948     189.964E-03     190.722E-03
             352             949     206.383E-03     209.851E-03
             335             949     206.383E-03     209.851E-03
             351             949     206.383E-03     209.851E-03
             336             949     206.383E-03     209.851E-03
             337             950     48.9364E-03     54.0353E-03
             353             950     48.9364E-03     54.0353E-03
             338             950     48.9364E-03     54.0353E-03
             354             950     48.9364E-03     54.0353E-03
             339             951     59.6717E-03     60.6547E-03
             338             951     59.6717E-03     60.6547E-03
             354             951     59.6717E-03     60.6547E-03
             355             951     59.6717E-03     60.6547E-03
             339             952     71.7799E-03     71.6622E-03
             340             952     71.7799E-03     71.6622E-03
             356             952     71.7799E-03     71.6622E-03
             355             952     71.7799E-03     71.6622E-03
             340             953     84.9292E-03     84.6563E-03
             357             953     84.9292E-03     84.6563E-03
             341             953     84.9292E-03     84.6563E-03
             356             953     84.9292E-03     84.6563E-03
             341             954     98.6470E-03     98.3773E-03
             358             954     98.6470E-03     98.3773E-03
             357             954     98.6470E-03     98.3773E-03
             342             954     98.6470E-03     98.3773E-03
             359             955     112.799E-03     112.481E-03
             358             955     112.799E-03     112.481E-03
             342             955     112.799E-03     112.481E-03
             343             955     112.799E-03     112.481E-03
             344             956     127.115E-03     126.760E-03
             343             956     127.115E-03     126.760E-03
             360             956     127.115E-03     126.760E-03
             359             956     127.115E-03     126.760E-03
             360             957     141.552E-03     141.083E-03
             344             957     141.552E-03     141.083E-03
             361             957     141.552E-03     141.083E-03
             345             957     141.552E-03     141.083E-03
             362             958     155.911E-03     155.340E-03
             345             958     155.911E-03     155.340E-03
             346             958     155.911E-03     155.340E-03
             361             958     155.911E-03     155.340E-03
             347             959     170.171E-03     169.327E-03
             363             959     170.171E-03     169.327E-03
             362             959     170.171E-03     169.327E-03
             346             959     170.171E-03     169.327E-03
             347             960     184.014E-03     182.874E-03
             363             960     184.014E-03     182.874E-03
             348             960     184.014E-03     182.874E-03
             364             960     184.014E-03     182.874E-03
             348             961     197.018E-03     195.438E-03
             364             961     197.018E-03     195.438E-03
             349             961     197.018E-03     195.438E-03
             365             961     197.018E-03     195.438E-03
             365             962     208.538E-03     206.388E-03
             349             962     208.538E-03     206.388E-03
             366             962     208.538E-03     206.388E-03
             350             962     208.538E-03     206.388E-03
             350             963     216.844E-03     214.795E-03
             351             963     216.844E-03     214.795E-03
             367             963     216.844E-03     214.795E-03
             366             963     216.844E-03     214.795E-03
             367             964     220.839E-03     218.024E-03
             368             964     220.839E-03     218.024E-03
             352             964     220.839E-03     218.024E-03
             351             964     220.839E-03     218.024E-03
             353             965     40.8305E-03     46.4940E-03
             369             965     40.8305E-03     46.4940E-03
             370             965     40.8305E-03     46.4940E-03
             354             965     40.8305E-03     46.4940E-03
             370             966     52.2271E-03     56.8400E-03
             355             966     52.2271E-03     56.8400E-03
             354             966     52.2271E-03     56.8400E-03
             371             966     52.2271E-03     56.8400E-03
             356             967     66.4490E-03     68.7555E-03
             355             967     66.4490E-03     68.7555E-03
             371             967     66.4490E-03     68.7555E-03
             372             967     66.4490E-03     68.7555E-03
             356             968     80.9866E-03     82.6935E-03
             373             968     80.9866E-03     82.6935E-03
             372             968     80.9866E-03     82.6935E-03
             357             968     80.9866E-03     82.6935E-03
             373             969     95.7849E-03     97.3088E-03
             357             969     95.7849E-03     97.3088E-03
             358             969     95.7849E-03     97.3088E-03
             374             969     95.7849E-03     97.3088E-03
             358             970     110.800E-03     112.309E-03
             359             970     110.800E-03     112.309E-03
             375             970     110.800E-03     112.309E-03
             374             970     110.800E-03     112.309E-03
             375             971     126.012E-03     127.537E-03
             359             971     126.012E-03     127.537E-03
             376             971     126.012E-03     127.537E-03
             360             971     126.012E-03     127.537E-03
             361             972     141.356E-03     142.913E-03
             376             972     141.356E-03     142.913E-03
             377             972     141.356E-03     142.913E-03
             360             972     141.356E-03     142.913E-03
             361             973     156.869E-03     158.422E-03
             377             973     156.869E-03     158.422E-03
             362             973     156.869E-03     158.422E-03
             378             973     156.869E-03     158.422E-03
             362             974     172.395E-03     174.052E-03
             363             974     172.395E-03     174.052E-03
             379             974     172.395E-03     174.052E-03
             378             974     172.395E-03     174.052E-03
             379             975     187.979E-03     189.705E-03
             363             975     187.979E-03     189.705E-03
             380             975     187.979E-03     189.705E-03
             364             975     187.979E-03     189.705E-03
             365             976     203.084E-03     205.202E-03
             364             976     203.084E-03     205.202E-03
             380             976     203.084E-03     205.202E-03
             381             976     203.084E-03     205.202E-03
             382             977     216.749E-03     219.714E-03
             365             977     216.749E-03     219.714E-03
             366             977     216.749E-03     219.714E-03
             381             977     216.749E-03     219.714E-03
             383             978     227.852E-03     231.504E-03
             367             978     227.852E-03     231.504E-03
             366             978     227.852E-03     231.504E-03
             382             978     227.852E-03     231.504E-03
             367             979     236.446E-03     239.892E-03
             368             979     236.446E-03     239.892E-03
             383             979     236.446E-03     239.892E-03
             384             979     236.446E-03     239.892E-03
             370             980     34.2512E-03     38.9223E-03
             369             980     34.2512E-03     38.9223E-03
             386             980     34.2512E-03     38.9223E-03
             385             980     34.2512E-03     38.9223E-03
             387             981     47.1375E-03     52.9572E-03
             371             981     47.1375E-03     52.9572E-03
             386             981     47.1375E-03     52.9572E-03
             370             981     47.1375E-03     52.9572E-03
             387             982     62.1305E-03     66.9412E-03
             372             982     62.1305E-03     66.9412E-03
             371             982     62.1305E-03     66.9412E-03
             388             982     62.1305E-03     66.9412E-03
             372             983     77.6699E-03     81.4534E-03
             388             983     77.6699E-03     81.4534E-03
             389             983     77.6699E-03     81.4534E-03
             373             983     77.6699E-03     81.4534E-03
             389             984     93.1932E-03     96.7405E-03
             374             984     93.1932E-03     96.7405E-03
             390             984     93.1932E-03     96.7405E-03
             373             984     93.1932E-03     96.7405E-03
             374             985     108.834E-03     112.337E-03
             390             985     108.834E-03     112.337E-03
             391             985     108.834E-03     112.337E-03
             375             985     108.834E-03     112.337E-03
             391             986     124.597E-03     128.144E-03
             392             986     124.597E-03     128.144E-03
             375             986     124.597E-03     128.144E-03
             376             986     124.597E-03     128.144E-03
             392             987     140.513E-03     144.144E-03
             393             987     140.513E-03     144.144E-03
             377             987     140.513E-03     144.144E-03
             376             987     140.513E-03     144.144E-03
             378             988     156.573E-03     160.354E-03
             393             988     156.573E-03     160.354E-03
             394             988     156.573E-03     160.354E-03
             377             988     156.573E-03     160.354E-03
             394             989     172.858E-03     176.875E-03
             378             989     172.858E-03     176.875E-03
             395             989     172.858E-03     176.875E-03
             379             989     172.858E-03     176.875E-03
             395             990     189.223E-03     193.721E-03
             396             990     189.223E-03     193.721E-03
             380             990     189.223E-03     193.721E-03
             379             990     189.223E-03     193.721E-03
             380             991     205.931E-03     211.007E-03
             396             991     205.931E-03     211.007E-03
             381             991     205.931E-03     211.007E-03
             397             991     205.931E-03     211.007E-03
             382             992     222.224E-03     228.160E-03
             381             992     222.224E-03     228.160E-03
             397             992     222.224E-03     228.160E-03
             398             992     222.224E-03     228.160E-03
             383             993     236.754E-03     243.490E-03
             382             993     236.754E-03     243.490E-03
             399             993     236.754E-03     243.490E-03
             398             993     236.754E-03     243.490E-03
             384             994     250.687E-03     255.585E-03
             400             994     250.687E-03     255.585E-03
             399             994     250.687E-03     255.585E-03
             383             994     250.687E-03     255.585E-03
             401             995     29.0927E-03     35.7032E-03
             386             995     29.0927E-03     35.7032E-03
             385             995     29.0927E-03     35.7032E-03
             402             995     29.0927E-03     35.7032E-03
             386             996     43.7045E-03     50.4979E-03
             403             996     43.7045E-03     50.4979E-03
             402             996     43.7045E-03     50.4979E-03
             387             996     43.7045E-03     50.4979E-03
             388             997     59.2008E-03     65.5996E-03
             387             997     59.2008E-03     65.5996E-03
             404             997     59.2008E-03     65.5996E-03
             403             997     59.2008E-03     65.5996E-03
             388             998     74.9251E-03     80.7679E-03
             404             998     74.9251E-03     80.7679E-03
             405             998     74.9251E-03     80.7679E-03
             389             998     74.9251E-03     80.7679E-03
             390             999     90.7930E-03     96.4106E-03
             406             999     90.7930E-03     96.4106E-03
             389             999     90.7930E-03     96.4106E-03
             405             999     90.7930E-03     96.4106E-03
             406            1000     106.676E-03     112.271E-03
             391            1000     106.676E-03     112.271E-03
             390            1000     106.676E-03     112.271E-03
             407            1000     106.676E-03     112.271E-03
             408            1001     122.628E-03     128.267E-03
             392            1001     122.628E-03     128.267E-03
             407            1001     122.628E-03     128.267E-03
             391            1001     122.628E-03     128.267E-03
             408            1002     138.675E-03     144.397E-03
             392            1002     138.675E-03     144.397E-03
             393            1002     138.675E-03     144.397E-03
             409            1002     138.675E-03     144.397E-03
             394            1003     154.827E-03     160.717E-03
             393            1003     154.827E-03     160.717E-03
             409            1003     154.827E-03     160.717E-03
             410            1003     154.827E-03     160.717E-03
             395            1004     171.152E-03     177.293E-03
             410            1004     171.152E-03     177.293E-03
             411            1004     171.152E-03     177.293E-03
             394            1004     171.152E-03     177.293E-03
             395            1005     187.798E-03     194.417E-03
             412            1005     187.798E-03     194.417E-03
             396            1005     187.798E-03     194.417E-03
             411            1005     187.798E-03     194.417E-03
             397            1006     204.866E-03     212.130E-03
             413            1006     204.866E-03     212.130E-03
             412            1006     204.866E-03     212.130E-03
             396            1006     204.866E-03     212.130E-03
             397            1007     223.762E-03     231.167E-03
             413            1007     223.762E-03     231.167E-03
             414            1007     223.762E-03     231.167E-03
             398            1007     223.762E-03     231.167E-03
             415            1008     243.727E-03     250.675E-03
             398            1008     243.727E-03     250.675E-03
             399            1008     243.727E-03     250.675E-03
             414            1008     243.727E-03     250.675E-03
             399            1009     262.061E-03     268.346E-03
             416            1009     262.061E-03     268.346E-03
             400            1009     262.061E-03     268.346E-03
             415            1009     262.061E-03     268.346E-03
             402            1010     26.8675E-03     35.5593E-03
             401            1010     26.8675E-03     35.5593E-03
             417            1010     26.8675E-03     35.5593E-03
             418            1010     26.8675E-03     35.5593E-03
             418            1011     42.2084E-03     50.1548E-03
             402            1011     42.2084E-03     50.1548E-03
             403            1011     42.2084E-03     50.1548E-03
             419            1011     42.2084E-03     50.1548E-03
             420            1012     57.3769E-03     64.9501E-03
             419            1012     57.3769E-03     64.9501E-03
             403            1012     57.3769E-03     64.9501E-03
             404            1012     57.3769E-03     64.9501E-03
             404            1013     72.8760E-03     80.6328E-03
             405            1013     72.8760E-03     80.6328E-03
             421            1013     72.8760E-03     80.6328E-03
             420            1013     72.8760E-03     80.6328E-03
             406            1014     88.5944E-03     96.3160E-03
             421            1014     88.5944E-03     96.3160E-03
             422            1014     88.5944E-03     96.3160E-03
             405            1014     88.5944E-03     96.3160E-03
             422            1015     104.360E-03     112.105E-03
             423            1015     104.360E-03     112.105E-03
             407            1015     104.360E-03     112.105E-03
             406            1015     104.360E-03     112.105E-03
             408            1016     120.158E-03     127.935E-03
             407            1016     120.158E-03     127.935E-03
             424            1016     120.158E-03     127.935E-03
             423            1016     120.158E-03     127.935E-03
             425            1017     135.951E-03     143.771E-03
             409            1017     135.951E-03     143.771E-03
             408            1017     135.951E-03     143.771E-03
             424            1017     135.951E-03     143.771E-03
             409            1018     151.810E-03     159.657E-03
             410            1018     151.810E-03     159.657E-03
             425            1018     151.810E-03     159.657E-03
             426            1018     151.810E-03     159.657E-03
             411            1019     167.711E-03     175.704E-03
             426            1019     167.711E-03     175.704E-03
             427            1019     167.711E-03     175.704E-03
             410            1019     167.711E-03     175.704E-03
             411            1020     183.969E-03     192.091E-03
             427            1020     183.969E-03     192.091E-03
             428            1020     183.969E-03     192.091E-03
             412            1020     183.969E-03     192.091E-03
             428            1021     200.945E-03     209.399E-03
             429            1021     200.945E-03     209.399E-03
             413            1021     200.945E-03     209.399E-03
             412            1021     200.945E-03     209.399E-03
             413            1022     219.745E-03     228.370E-03
             429            1022     219.745E-03     228.370E-03
             414            1022     219.745E-03     228.370E-03
             430            1022     219.745E-03     228.370E-03
             415            1023     244.800E-03     251.794E-03
             414            1023     244.800E-03     251.794E-03
             430            1023     244.800E-03     251.794E-03
             431            1023     244.800E-03     251.794E-03
             416            1024     272.354E-03     276.029E-03
             415            1024     272.354E-03     276.029E-03
             432            1024     272.354E-03     276.029E-03
             431            1024     272.354E-03     276.029E-03
             418            1025     29.5988E-03     37.5780E-03
             433            1025     29.5988E-03     37.5780E-03
             434            1025     29.5988E-03     37.5780E-03
             417            1025     29.5988E-03     37.5780E-03
             419            1026     42.7907E-03     50.9603E-03
             434            1026     42.7907E-03     50.9603E-03
             435            1026     42.7907E-03     50.9603E-03
             418            1026     42.7907E-03     50.9603E-03
             419            1027     56.6572E-03     65.8359E-03
             420            1027     56.6572E-03     65.8359E-03
             435            1027     56.6572E-03     65.8359E-03
             436            1027     56.6572E-03     65.8359E-03
             437            1028     71.6172E-03     81.2298E-03
             420            1028     71.6172E-03     81.2298E-03
             421            1028     71.6172E-03     81.2298E-03
             436            1028     71.6172E-03     81.2298E-03
             437            1029     86.7896E-03     96.6830E-03
             422            1029     86.7896E-03     96.6830E-03
             438            1029     86.7896E-03     96.6830E-03
             421            1029     86.7896E-03     96.6830E-03
             422            1030     102.144E-03     112.102E-03
             438            1030     102.144E-03     112.102E-03
             423            1030     102.144E-03     112.102E-03
             439            1030     102.144E-03     112.102E-03
             423            1031     117.472E-03     127.438E-03
             440            1031     117.472E-03     127.438E-03
             439            1031     117.472E-03     127.438E-03
             424            1031     117.472E-03     127.438E-03
             425            1032     132.769E-03     142.689E-03
             440            1032     132.769E-03     142.689E-03
             424            1032     132.769E-03     142.689E-03
             441            1032     132.769E-03     142.689E-03
             441            1033     147.974E-03     157.812E-03
             426            1033     147.974E-03     157.812E-03
             425            1033     147.974E-03     157.812E-03
             442            1033     147.974E-03     157.812E-03
             427            1034     163.268E-03     172.907E-03
             426            1034     163.268E-03     172.907E-03
             443            1034     163.268E-03     172.907E-03
             442            1034     163.268E-03     172.907E-03
             428            1035     178.693E-03     188.075E-03
             443            1035     178.693E-03     188.075E-03
             444            1035     178.693E-03     188.075E-03
             427            1035     178.693E-03     188.075E-03
             429            1036     195.087E-03     204.026E-03
             444            1036     195.087E-03     204.026E-03
             445            1036     195.087E-03     204.026E-03
             428            1036     195.087E-03     204.026E-03
             445            1037     213.051E-03     221.556E-03
             446            1037     213.051E-03     221.556E-03
             430            1037     213.051E-03     221.556E-03
             429            1037     213.051E-03     221.556E-03
             430            1038     236.417E-03     244.843E-03
             446            1038     236.417E-03     244.843E-03
             431            1038     236.417E-03     244.843E-03
             447            1038     236.417E-03     244.843E-03
             431            1039     272.700E-03     278.951E-03
             448            1039     272.700E-03     278.951E-03
             447            1039     272.700E-03     278.951E-03
             432            1039     272.700E-03     278.951E-03
             434            1040     46.1686E-03     50.0980E-03
             449            1040     46.1686E-03     50.0980E-03
             450            1040     46.1686E-03     50.0980E-03
             433            1040     46.1686E-03     50.0980E-03
             435            1041     58.2557E-03     62.1298E-03
             450            1041     58.2557E-03     62.1298E-03
             451            1041     58.2557E-03     62.1298E-03
             434            1041     58.2557E-03     62.1298E-03
             436            1042     72.4378E-03     77.0712E-03
             451            1042     72.4378E-03     77.0712E-03
             452            1042     72.4378E-03     77.0712E-03
             435            1042     72.4378E-03     77.0712E-03
             436            1043     87.9833E-03     93.1303E-03
             452            1043     87.9833E-03     93.1303E-03
             453            1043     87.9833E-03     93.1303E-03
             437            1043     87.9833E-03     93.1303E-03
             453            1044     104.241E-03     109.518E-03
             454            1044     104.241E-03     109.518E-03
             437            1044     104.241E-03     109.518E-03
             438            1044     104.241E-03     109.518E-03
             454            1045     120.758E-03     126.063E-03
             455            1045     120.758E-03     126.063E-03
             438            1045     120.758E-03     126.063E-03
             439            1045     120.758E-03     126.063E-03
             456            1046     137.383E-03     142.602E-03
             440            1046     137.383E-03     142.602E-03
             439            1046     137.383E-03     142.602E-03
             455            1046     137.383E-03     142.602E-03
             456            1047     153.915E-03     159.098E-03
             441            1047     153.915E-03     159.098E-03
             457            1047     153.915E-03     159.098E-03
             440            1047     153.915E-03     159.098E-03
             458            1048     170.372E-03     175.356E-03
             441            1048     170.372E-03     175.356E-03
             457            1048     170.372E-03     175.356E-03
             442            1048     170.372E-03     175.356E-03
             443            1049     186.606E-03     191.380E-03
             458            1049     186.606E-03     191.380E-03
             459            1049     186.606E-03     191.380E-03
             442            1049     186.606E-03     191.380E-03
             460            1050     202.851E-03     207.014E-03
             443            1050     202.851E-03     207.014E-03
             444            1050     202.851E-03     207.014E-03
             459            1050     202.851E-03     207.014E-03
             461            1051     218.764E-03     222.187E-03
             444            1051     218.764E-03     222.187E-03
             460            1051     218.764E-03     222.187E-03
             445            1051     218.764E-03     222.187E-03
             445            1052     235.228E-03     237.313E-03
             446            1052     235.228E-03     237.313E-03
             461            1052     235.228E-03     237.313E-03
             462            1052     235.228E-03     237.313E-03
             447            1053     251.516E-03     252.877E-03
             462            1053     251.516E-03     252.877E-03
             463            1053     251.516E-03     252.877E-03
             446            1053     251.516E-03     252.877E-03
             463            1054     272.700E-03     277.484E-03
             464            1054     272.700E-03     277.484E-03
             447            1054     272.700E-03     277.484E-03
             448            1054     272.700E-03     277.484E-03
             465            1055     53.3414E-03     59.2580E-03
             466            1055     53.3414E-03     59.2580E-03
             449            1055     53.3414E-03     59.2580E-03
             450            1055     53.3414E-03     59.2580E-03
             450            1056     68.5250E-03     70.0155E-03
             466            1056     68.5250E-03     70.0155E-03
             467            1056     68.5250E-03     70.0155E-03
             451            1056     68.5250E-03     70.0155E-03
             451            1057     84.8962E-03     85.6539E-03
             468            1057     84.8962E-03     85.6539E-03
             452            1057     84.8962E-03     85.6539E-03
             467            1057     84.8962E-03     85.6539E-03
             468            1058     102.448E-03     103.173E-03
             452            1058     102.448E-03     103.173E-03
             453            1058     102.448E-03     103.173E-03
             469            1058     102.448E-03     103.173E-03
             470            1059     120.545E-03     121.235E-03
             453            1059     120.545E-03     121.235E-03
             454            1059     120.545E-03     121.235E-03
             469            1059     120.545E-03     121.235E-03
             470            1060     139.015E-03     139.696E-03
             454            1060     139.015E-03     139.696E-03
             455            1060     139.015E-03     139.696E-03
             471            1060     139.015E-03     139.696E-03
             455            1061     157.657E-03     158.285E-03
             456            1061     157.657E-03     158.285E-03
             472            1061     157.657E-03     158.285E-03
             471            1061     157.657E-03     158.285E-03
             457            1062     176.321E-03     176.931E-03
             473            1062     176.321E-03     176.931E-03
             456            1062     176.321E-03     176.931E-03
             472            1062     176.321E-03     176.931E-03
             458            1063     195.002E-03     195.504E-03
             474            1063     195.002E-03     195.504E-03
             457            1063     195.002E-03     195.504E-03
             473            1063     195.002E-03     195.504E-03
             474            1064     213.521E-03     213.944E-03
             475            1064     213.521E-03     213.944E-03
             458            1064     213.521E-03     213.944E-03
             459            1064     213.521E-03     213.944E-03
             475            1065     231.880E-03     231.996E-03
             476            1065     231.880E-03     231.996E-03
             460            1065     231.880E-03     231.996E-03
             459            1065     231.880E-03     231.996E-03
             460            1066     249.707E-03     249.448E-03
             476            1066     249.707E-03     249.448E-03
             477            1066     249.707E-03     249.448E-03
             461            1066     249.707E-03     249.448E-03
             477            1067     265.918E-03     265.396E-03
             462            1067     265.918E-03     265.396E-03
             461            1067     265.918E-03     265.396E-03
             478            1067     265.918E-03     265.396E-03
             462            1068     279.725E-03     278.807E-03
             478            1068     279.725E-03     278.807E-03
             479            1068     279.725E-03     278.807E-03
             463            1068     279.725E-03     278.807E-03
             464            1069     288.735E-03     287.195E-03
             479            1069     288.735E-03     287.195E-03
             480            1069     288.735E-03     287.195E-03
             463            1069     288.735E-03     287.195E-03
             481            1070     43.3411E-03     51.1464E-03
             466            1070     43.3411E-03     51.1464E-03
             465            1070     43.3411E-03     51.1464E-03
             482            1070     43.3411E-03     51.1464E-03
             482            1071     60.2276E-03     66.1402E-03
             483            1071     60.2276E-03     66.1402E-03
             467            1071     60.2276E-03     66.1402E-03
             466            1071     60.2276E-03     66.1402E-03
             484            1072     79.1068E-03     82.7799E-03
             483            1072     79.1068E-03     82.7799E-03
             467            1072     79.1068E-03     82.7799E-03
             468            1072     79.1068E-03     82.7799E-03
             485            1073     98.0321E-03     101.147E-03
             484            1073     98.0321E-03     101.147E-03
             469            1073     98.0321E-03     101.147E-03
             468            1073     98.0321E-03     101.147E-03
             469            1074     117.079E-03     120.150E-03
             485            1074     117.079E-03     120.150E-03
             470            1074     117.079E-03     120.150E-03
             486            1074     117.079E-03     120.150E-03
             487            1075     136.357E-03     139.461E-03
             470            1075     136.357E-03     139.461E-03
             486            1075     136.357E-03     139.461E-03
             471            1075     136.357E-03     139.461E-03
             471            1076     155.749E-03     158.919E-03
             487            1076     155.749E-03     158.919E-03
             488            1076     155.749E-03     158.919E-03
             472            1076     155.749E-03     158.919E-03
             472            1077     175.317E-03     178.495E-03
             488            1077     175.317E-03     178.495E-03
             489            1077     175.317E-03     178.495E-03
             473            1077     175.317E-03     178.495E-03
             473            1078     194.984E-03     198.209E-03
             490            1078     194.984E-03     198.209E-03
             489            1078     194.984E-03     198.209E-03
             474            1078     194.984E-03     198.209E-03
             475            1079     214.858E-03     218.123E-03
             490            1079     214.858E-03     218.123E-03
             491            1079     214.858E-03     218.123E-03
             474            1079     214.858E-03     218.123E-03
             475            1080     234.764E-03     238.263E-03
             476            1080     234.764E-03     238.263E-03
             492            1080     234.764E-03     238.263E-03
             491            1080     234.764E-03     238.263E-03
             477            1081     254.960E-03     258.782E-03
             492            1081     254.960E-03     258.782E-03
             476            1081     254.960E-03     258.782E-03
             493            1081     254.960E-03     258.782E-03
             477            1082     274.553E-03     279.254E-03
             494            1082     274.553E-03     279.254E-03
             493            1082     274.553E-03     279.254E-03
             478            1082     274.553E-03     279.254E-03
             495            1083     291.739E-03     297.906E-03
             478            1083     291.739E-03     297.906E-03
             479            1083     291.739E-03     297.906E-03
             494            1083     291.739E-03     297.906E-03
             479            1084     306.578E-03     310.969E-03
             495            1084     306.578E-03     310.969E-03
             480            1084     306.578E-03     310.969E-03
             496            1084     306.578E-03     310.969E-03
             481            1085     36.3860E-03     44.0123E-03
             498            1085     36.3860E-03     44.0123E-03
             482            1085     36.3860E-03     44.0123E-03
             497            1085     36.3860E-03     44.0123E-03
             499            1086     54.9289E-03     63.3714E-03
             483            1086     54.9289E-03     63.3714E-03
             498            1086     54.9289E-03     63.3714E-03
             482            1086     54.9289E-03     63.3714E-03
             483            1087     74.7739E-03     81.3680E-03
             484            1087     74.7739E-03     81.3680E-03
             500            1087     74.7739E-03     81.3680E-03
             499            1087     74.7739E-03     81.3680E-03
             485            1088     94.4713E-03     100.217E-03
             501            1088     94.4713E-03     100.217E-03
             484            1088     94.4713E-03     100.217E-03
             500            1088     94.4713E-03     100.217E-03
             486            1089     114.170E-03     119.852E-03
             501            1089     114.170E-03     119.852E-03
             502            1089     114.170E-03     119.852E-03
             485            1089     114.170E-03     119.852E-03
             486            1090     133.872E-03     139.607E-03
             503            1090     133.872E-03     139.607E-03
             502            1090     133.872E-03     139.607E-03
             487            1090     133.872E-03     139.607E-03
             503            1091     153.717E-03     159.509E-03
             504            1091     153.717E-03     159.509E-03
             488            1091     153.717E-03     159.509E-03
             487            1091     153.717E-03     159.509E-03
             488            1092     173.661E-03     179.516E-03
             505            1092     173.661E-03     179.516E-03
             489            1092     173.661E-03     179.516E-03
             504            1092     173.661E-03     179.516E-03
             490            1093     193.771E-03     199.698E-03
             505            1093     193.771E-03     199.698E-03
             506            1093     193.771E-03     199.698E-03
             489            1093     193.771E-03     199.698E-03
             490            1094     214.030E-03     220.136E-03
             506            1094     214.030E-03     220.136E-03
             491            1094     214.030E-03     220.136E-03
             507            1094     214.030E-03     220.136E-03
             491            1095     234.618E-03     241.117E-03
             492            1095     234.618E-03     241.117E-03
             508            1095     234.618E-03     241.117E-03
             507            1095     234.618E-03     241.117E-03
             508            1096     255.369E-03     262.722E-03
             492            1096     255.369E-03     262.722E-03
             493            1096     255.369E-03     262.722E-03
             509            1096     255.369E-03     262.722E-03
             493            1097     277.760E-03     285.696E-03
             509            1097     277.760E-03     285.696E-03
             494            1097     277.760E-03     285.696E-03
             510            1097     277.760E-03     285.696E-03
             495            1098     300.180E-03     308.450E-03
             511            1098     300.180E-03     308.450E-03
             510            1098     300.180E-03     308.450E-03
             494            1098     300.180E-03     308.450E-03
             511            1099     319.462E-03     328.235E-03
             512            1099     319.462E-03     328.235E-03
             496            1099     319.462E-03     328.235E-03
             495            1099     319.462E-03     328.235E-03
             514            1100     32.7760E-03     44.0212E-03
             498            1100     32.7760E-03     44.0212E-03
             497            1100     32.7760E-03     44.0212E-03
             513            1100     32.7760E-03     44.0212E-03
             499            1101     52.9752E-03     62.0202E-03
             514            1101     52.9752E-03     62.0202E-03
             515            1101     52.9752E-03     62.0202E-03
             498            1101     52.9752E-03     62.0202E-03
             499            1102     72.2379E-03     80.9835E-03
             515            1102     72.2379E-03     80.9835E-03
             516            1102     72.2379E-03     80.9835E-03
             500            1102     72.2379E-03     80.9835E-03
             501            1103     91.9767E-03     100.437E-03
             516            1103     91.9767E-03     100.437E-03
             517            1103     91.9767E-03     100.437E-03
             500            1103     91.9767E-03     100.437E-03
             501            1104     111.719E-03     120.136E-03
             517            1104     111.719E-03     120.136E-03
             518            1104     111.719E-03     120.136E-03
             502            1104     111.719E-03     120.136E-03
             502            1105     131.502E-03     139.978E-03
             519            1105     131.502E-03     139.978E-03
             518            1105     131.502E-03     139.978E-03
             503            1105     131.502E-03     139.978E-03
             503            1106     151.316E-03     159.842E-03
             519            1106     151.316E-03     159.842E-03
             504            1106     151.316E-03     159.842E-03
             520            1106     151.316E-03     159.842E-03
             504            1107     171.167E-03     179.727E-03
             521            1107     171.167E-03     179.727E-03
             505            1107     171.167E-03     179.727E-03
             520            1107     171.167E-03     179.727E-03
             506            1108     191.073E-03     199.670E-03
             505            1108     191.073E-03     199.670E-03
             521            1108     191.073E-03     199.670E-03
             522            1108     191.073E-03     199.670E-03
             507            1109     211.031E-03     219.737E-03
             522            1109     211.031E-03     219.737E-03
             523            1109     211.031E-03     219.737E-03
             506            1109     211.031E-03     219.737E-03
             523            1110     231.167E-03     240.101E-03
             524            1110     231.167E-03     240.101E-03
             508            1110     231.167E-03     240.101E-03
             507            1110     231.167E-03     240.101E-03
             509            1111     251.802E-03     261.250E-03
             524            1111     251.802E-03     261.250E-03
             525            1111     251.802E-03     261.250E-03
             508            1111     251.802E-03     261.250E-03
             525            1112     273.612E-03     283.713E-03
             526            1112     273.612E-03     283.713E-03
             510            1112     273.612E-03     283.713E-03
             509            1112     273.612E-03     283.713E-03
             527            1113     301.080E-03     310.182E-03
             511            1113     301.080E-03     310.182E-03
             510            1113     301.080E-03     310.182E-03
             526            1113     301.080E-03     310.182E-03
             512            1114     330.519E-03     335.250E-03
             511            1114     330.519E-03     335.250E-03
             528            1114     330.519E-03     335.250E-03
             527            1114     330.519E-03     335.250E-03
             530            1115     36.4106E-03     46.2748E-03
             529            1115     36.4106E-03     46.2748E-03
             514            1115     36.4106E-03     46.2748E-03
             513            1115     36.4106E-03     46.2748E-03
             531            1116     53.5633E-03     63.3194E-03
             515            1116     53.5633E-03     63.3194E-03
             530            1116     53.5633E-03     63.3194E-03
             514            1116     53.5633E-03     63.3194E-03
             516            1117     71.6019E-03     82.2104E-03
             532            1117     71.6019E-03     82.2104E-03
             531            1117     71.6019E-03     82.2104E-03
             515            1117     71.6019E-03     82.2104E-03
             533            1118     90.6253E-03     101.757E-03
             532            1118     90.6253E-03     101.757E-03
             516            1118     90.6253E-03     101.757E-03
             517            1118     90.6253E-03     101.757E-03
             533            1119     109.940E-03     121.170E-03
             518            1119     109.940E-03     121.170E-03
             517            1119     109.940E-03     121.170E-03
             534            1119     109.940E-03     121.170E-03
             518            1120     129.386E-03     140.668E-03
             519            1120     129.386E-03     140.668E-03
             534            1120     129.386E-03     140.668E-03
             535            1120     129.386E-03     140.668E-03
             520            1121     148.772E-03     160.061E-03
             519            1121     148.772E-03     160.061E-03
             535            1121     148.772E-03     160.061E-03
             536            1121     148.772E-03     160.061E-03
             520            1122     168.092E-03     179.388E-03
             521            1122     168.092E-03     179.388E-03
             537            1122     168.092E-03     179.388E-03
             536            1122     168.092E-03     179.388E-03
             521            1123     187.269E-03     198.532E-03
             538            1123     187.269E-03     198.532E-03
             522            1123     187.269E-03     198.532E-03
             537            1123     187.269E-03     198.532E-03
             522            1124     206.382E-03     217.569E-03
             523            1124     206.382E-03     217.569E-03
             538            1124     206.382E-03     217.569E-03
             539            1124     206.382E-03     217.569E-03
             539            1125     225.420E-03     236.429E-03
             540            1125     225.420E-03     236.429E-03
             523            1125     225.420E-03     236.429E-03
             524            1125     225.420E-03     236.429E-03
             540            1126     245.046E-03     255.677E-03
             525            1126     245.046E-03     255.677E-03
             524            1126     245.046E-03     255.677E-03
             541            1126     245.046E-03     255.677E-03
             525            1127     265.587E-03     275.898E-03
             526            1127     265.587E-03     275.898E-03
             542            1127     265.587E-03     275.898E-03
             541            1127     265.587E-03     275.898E-03
             526            1128     291.170E-03     301.053E-03
             542            1128     291.170E-03     301.053E-03
             543            1128     291.170E-03     301.053E-03
             527            1128     291.170E-03     301.053E-03
             527            1129     329.216E-03     336.510E-03
             528            1129     329.216E-03     336.510E-03
             544            1129     329.216E-03     336.510E-03
             543            1129     329.216E-03     336.510E-03
             994            1451     42.9934E-03     51.3431E-03
            1010            1451     42.9934E-03     51.3431E-03
            1011            1451     42.9934E-03     51.3431E-03
             995            1451     42.9934E-03     51.3431E-03
             996            1452     59.0301E-03     68.2037E-03
            1011            1452     59.0301E-03     68.2037E-03
            1012            1452     59.0301E-03     68.2037E-03
             995            1452     59.0301E-03     68.2037E-03
             997            1453     78.6559E-03     88.2753E-03
            1012            1453     78.6559E-03     88.2753E-03
            1013            1453     78.6559E-03     88.2753E-03
             996            1453     78.6559E-03     88.2753E-03
             997            1454     100.284E-03     109.675E-03
            1014            1454     100.284E-03     109.675E-03
            1013            1454     100.284E-03     109.675E-03
             998            1454     100.284E-03     109.675E-03
             999            1455     122.404E-03     131.396E-03
            1014            1455     122.404E-03     131.396E-03
            1015            1455     122.404E-03     131.396E-03
             998            1455     122.404E-03     131.396E-03
            1015            1456     144.842E-03     153.377E-03
            1016            1456     144.842E-03     153.377E-03
            1000            1456     144.842E-03     153.377E-03
             999            1456     144.842E-03     153.377E-03
            1000            1457     167.456E-03     175.422E-03
            1017            1457     167.456E-03     175.422E-03
            1001            1457     167.456E-03     175.422E-03
            1016            1457     167.456E-03     175.422E-03
            1001            1458     190.096E-03     197.565E-03
            1017            1458     190.096E-03     197.565E-03
            1002            1458     190.096E-03     197.565E-03
            1018            1458     190.096E-03     197.565E-03
            1019            1459     212.776E-03     219.595E-03
            1002            1459     212.776E-03     219.595E-03
            1003            1459     212.776E-03     219.595E-03
            1018            1459     212.776E-03     219.595E-03
            1003            1460     235.325E-03     241.649E-03
            1020            1460     235.325E-03     241.649E-03
            1019            1460     235.325E-03     241.649E-03
            1004            1460     235.325E-03     241.649E-03
            1004            1461     257.751E-03     263.347E-03
            1021            1461     257.751E-03     263.347E-03
            1020            1461     257.751E-03     263.347E-03
            1005            1461     257.751E-03     263.347E-03
            1005            1462     279.985E-03     284.870E-03
            1021            1462     279.985E-03     284.870E-03
            1022            1462     279.985E-03     284.870E-03
            1006            1462     279.985E-03     284.870E-03
            1022            1463     301.604E-03     305.644E-03
            1023            1463     301.604E-03     305.644E-03
            1007            1463     301.604E-03     305.644E-03
            1006            1463     301.604E-03     305.644E-03
            1023            1464     320.961E-03     324.194E-03
            1008            1464     320.961E-03     324.194E-03
            1007            1464     320.961E-03     324.194E-03
            1024            1464     320.961E-03     324.194E-03
            1009            1465     337.188E-03     340.457E-03
            1024            1465     337.188E-03     340.457E-03
            1008            1465     337.188E-03     340.457E-03
            1025            1465     337.188E-03     340.457E-03
            1027            1466     39.0961E-03     50.9936E-03
            1010            1466     39.0961E-03     50.9936E-03
            1011            1466     39.0961E-03     50.9936E-03
            1026            1466     39.0961E-03     50.9936E-03
            1012            1467     57.2251E-03     68.7520E-03
            1028            1467     57.2251E-03     68.7520E-03
            1027            1467     57.2251E-03     68.7520E-03
            1011            1467     57.2251E-03     68.7520E-03
            1029            1468     78.6096E-03     89.2802E-03
            1013            1468     78.6096E-03     89.2802E-03
            1012            1468     78.6096E-03     89.2802E-03
            1028            1468     78.6096E-03     89.2802E-03
            1014            1469     102.091E-03     112.507E-03
            1030            1469     102.091E-03     112.507E-03
            1029            1469     102.091E-03     112.507E-03
            1013            1469     102.091E-03     112.507E-03
            1014            1470     125.913E-03     136.002E-03
            1015            1470     125.913E-03     136.002E-03
            1030            1470     125.913E-03     136.002E-03
            1031            1470     125.913E-03     136.002E-03
            1031            1471     150.421E-03     159.921E-03
            1015            1471     150.421E-03     159.921E-03
            1016            1471     150.421E-03     159.921E-03
            1032            1471     150.421E-03     159.921E-03
            1017            1472     175.051E-03     183.839E-03
            1032            1472     175.051E-03     183.839E-03
            1016            1472     175.051E-03     183.839E-03
            1033            1472     175.051E-03     183.839E-03
            1034            1473     199.812E-03     207.895E-03
            1018            1473     199.812E-03     207.895E-03
            1017            1473     199.812E-03     207.895E-03
            1033            1473     199.812E-03     207.895E-03
            1035            1474     224.625E-03     231.888E-03
            1018            1474     224.625E-03     231.888E-03
            1034            1474     224.625E-03     231.888E-03
            1019            1474     224.625E-03     231.888E-03
            1035            1475     249.344E-03     255.881E-03
            1020            1475     249.344E-03     255.881E-03
            1036            1475     249.344E-03     255.881E-03
            1019            1475     249.344E-03     255.881E-03
            1036            1476     274.122E-03     279.752E-03
            1020            1476     274.122E-03     279.752E-03
            1021            1476     274.122E-03     279.752E-03
            1037            1476     274.122E-03     279.752E-03
            1038            1477     298.607E-03     303.556E-03
            1022            1477     298.607E-03     303.556E-03
            1021            1477     298.607E-03     303.556E-03
            1037            1477     298.607E-03     303.556E-03
            1039            1478     323.148E-03     327.090E-03
            1038            1478     323.148E-03     327.090E-03
            1023            1478     323.148E-03     327.090E-03
            1022            1478     323.148E-03     327.090E-03
            1023            1479     345.756E-03     348.887E-03
            1024            1479     345.756E-03     348.887E-03
            1040            1479     345.756E-03     348.887E-03
            1039            1479     345.756E-03     348.887E-03
            1024            1480     361.309E-03     364.800E-03
            1025            1480     361.309E-03     364.800E-03
            1041            1480     361.309E-03     364.800E-03
            1040            1480     361.309E-03     364.800E-03
            1043            1481     29.0330E-03     37.2619E-03
            1042            1481     29.0330E-03     37.2619E-03
            1027            1481     29.0330E-03     37.2619E-03
            1026            1481     29.0330E-03     37.2619E-03
            1044            1482     50.9700E-03     57.5609E-03
            1043            1482     50.9700E-03     57.5609E-03
            1027            1482     50.9700E-03     57.5609E-03
            1028            1482     50.9700E-03     57.5609E-03
            1045            1483     75.9935E-03     81.5685E-03
            1029            1483     75.9935E-03     81.5685E-03
            1028            1483     75.9935E-03     81.5685E-03
            1044            1483     75.9935E-03     81.5685E-03
            1030            1484     99.9162E-03     106.033E-03
            1029            1484     99.9162E-03     106.033E-03
            1046            1484     99.9162E-03     106.033E-03
            1045            1484     99.9162E-03     106.033E-03
            1031            1485     124.337E-03     130.786E-03
            1047            1485     124.337E-03     130.786E-03
            1030            1485     124.337E-03     130.786E-03
            1046            1485     124.337E-03     130.786E-03
            1032            1486     149.012E-03     155.632E-03
            1031            1486     149.012E-03     155.632E-03
            1047            1486     149.012E-03     155.632E-03
            1048            1486     149.012E-03     155.632E-03
            1049            1487     173.862E-03     180.588E-03
            1048            1487     173.862E-03     180.588E-03
            1033            1487     173.862E-03     180.588E-03
            1032            1487     173.862E-03     180.588E-03
            1033            1488     198.833E-03     205.561E-03
            1049            1488     198.833E-03     205.561E-03
            1050            1488     198.833E-03     205.561E-03
            1034            1488     198.833E-03     205.561E-03
            1051            1489     223.866E-03     230.652E-03
            1035            1489     223.866E-03     230.652E-03
            1050            1489     223.866E-03     230.652E-03
            1034            1489     223.866E-03     230.652E-03
            1052            1490     249.046E-03     255.793E-03
            1035            1490     249.046E-03     255.793E-03
            1036            1490     249.046E-03     255.793E-03
            1051            1490     249.046E-03     255.793E-03
            1036            1491     274.377E-03     281.215E-03
            1053            1491     274.377E-03     281.215E-03
            1052            1491     274.377E-03     281.215E-03
            1037            1491     274.377E-03     281.215E-03
            1038            1492     299.951E-03     307.027E-03
            1054            1492     299.951E-03     307.027E-03
            1053            1492     299.951E-03     307.027E-03
            1037            1492     299.951E-03     307.027E-03
            1038            1493     325.823E-03     333.572E-03
            1054            1493     325.823E-03     333.572E-03
            1039            1493     325.823E-03     333.572E-03
            1055            1493     325.823E-03     333.572E-03
            1040            1494     354.998E-03     362.981E-03
            1056            1494     354.998E-03     362.981E-03
            1055            1494     354.998E-03     362.981E-03
            1039            1494     354.998E-03     362.981E-03
            1041            1495     382.484E-03     386.905E-03
            1040            1495     382.484E-03     386.905E-03
            1056            1495     382.484E-03     386.905E-03
            1057            1495     382.484E-03     386.905E-03
            1043            1496     28.4902E-03     34.3615E-03
            1058            1496     28.4902E-03     34.3615E-03
            1059            1496     28.4902E-03     34.3615E-03
            1042            1496     28.4902E-03     34.3615E-03
            1059            1497     49.4715E-03     49.5028E-03
            1043            1497     49.4715E-03     49.5028E-03
            1044            1497     49.4715E-03     49.5028E-03
            1060            1497     49.4715E-03     49.5028E-03
            1060            1498     75.9025E-03     76.9176E-03
            1061            1498     75.9025E-03     76.9176E-03
            1045            1498     75.9025E-03     76.9176E-03
            1044            1498     75.9025E-03     76.9176E-03
            1062            1499     100.124E-03     102.229E-03
            1046            1499     100.124E-03     102.229E-03
            1045            1499     100.124E-03     102.229E-03
            1061            1499     100.124E-03     102.229E-03
            1047            1500     124.659E-03     127.561E-03
            1062            1500     124.659E-03     127.561E-03
            1063            1500     124.659E-03     127.561E-03
            1046            1500     124.659E-03     127.561E-03
            1063            1501     149.071E-03     152.868E-03
            1064            1501     149.071E-03     152.868E-03
            1048            1501     149.071E-03     152.868E-03
            1047            1501     149.071E-03     152.868E-03
            1065            1502     173.645E-03     178.262E-03
            1064            1502     173.645E-03     178.262E-03
            1049            1502     173.645E-03     178.262E-03
            1048            1502     173.645E-03     178.262E-03
            1049            1503     198.145E-03     203.658E-03
            1050            1503     198.145E-03     203.658E-03
            1065            1503     198.145E-03     203.658E-03
            1066            1503     198.145E-03     203.658E-03
            1066            1504     222.673E-03     228.975E-03
            1067            1504     222.673E-03     228.975E-03
            1050            1504     222.673E-03     228.975E-03
            1051            1504     222.673E-03     228.975E-03
            1068            1505     247.089E-03     254.306E-03
            1067            1505     247.089E-03     254.306E-03
            1051            1505     247.089E-03     254.306E-03
            1052            1505     247.089E-03     254.306E-03
            1068            1506     271.427E-03     279.407E-03
            1069            1506     271.427E-03     279.407E-03
            1053            1506     271.427E-03     279.407E-03
            1052            1506     271.427E-03     279.407E-03
            1053            1507     295.762E-03     304.572E-03
            1069            1507     295.762E-03     304.572E-03
            1054            1507     295.762E-03     304.572E-03
            1070            1507     295.762E-03     304.572E-03
            1071            1508     320.093E-03     329.872E-03
            1055            1508     320.093E-03     329.872E-03
            1054            1508     320.093E-03     329.872E-03
            1070            1508     320.093E-03     329.872E-03
            1056            1509     347.508E-03     357.953E-03
            1055            1509     347.508E-03     357.953E-03
            1071            1509     347.508E-03     357.953E-03
            1072            1509     347.508E-03     357.953E-03
            1073            1510     384.211E-03     393.445E-03
            1072            1510     384.211E-03     393.445E-03
            1056            1510     384.211E-03     393.445E-03
            1057            1510     384.211E-03     393.445E-03
            1753            2102     48.6170E-03     50.4309E-03
            1770            2102     48.6170E-03     50.4309E-03
            1754            2102     48.6170E-03     50.4309E-03
            1769            2102     48.6170E-03     50.4309E-03
            1754            2103     58.5939E-03     64.3719E-03
            1755            2103     58.5939E-03     64.3719E-03
            1770            2103     58.5939E-03     64.3719E-03
            1771            2103     58.5939E-03     64.3719E-03
            1755            2104     75.5812E-03     82.3081E-03
            1756            2104     75.5812E-03     82.3081E-03
            1772            2104     75.5812E-03     82.3081E-03
            1771            2104     75.5812E-03     82.3081E-03
            1757            2105     96.5221E-03     103.420E-03
            1772            2105     96.5221E-03     103.420E-03
            1756            2105     96.5221E-03     103.420E-03
            1773            2105     96.5221E-03     103.420E-03
            1773            2106     119.046E-03     125.903E-03
            1758            2106     119.046E-03     125.903E-03
            1757            2106     119.046E-03     125.903E-03
            1774            2106     119.046E-03     125.903E-03
            1774            2107     142.350E-03     149.189E-03
            1758            2107     142.350E-03     149.189E-03
            1759            2107     142.350E-03     149.189E-03
            1775            2107     142.350E-03     149.189E-03
            1759            2108     166.143E-03     172.869E-03
            1760            2108     166.143E-03     172.869E-03
            1776            2108     166.143E-03     172.869E-03
            1775            2108     166.143E-03     172.869E-03
            1760            2109     190.098E-03     196.950E-03
            1761            2109     190.098E-03     196.950E-03
            1776            2109     190.098E-03     196.950E-03
            1777            2109     190.098E-03     196.950E-03
            1761            2110     214.444E-03     221.006E-03
            1777            2110     214.444E-03     221.006E-03
            1778            2110     214.444E-03     221.006E-03
            1762            2110     214.444E-03     221.006E-03
            1762            2111     238.583E-03     245.548E-03
            1779            2111     238.583E-03     245.548E-03
            1778            2111     238.583E-03     245.548E-03
            1763            2111     238.583E-03     245.548E-03
            1763            2112     263.315E-03     269.680E-03
            1764            2112     263.315E-03     269.680E-03
            1780            2112     263.315E-03     269.680E-03
            1779            2112     263.315E-03     269.680E-03
            1765            2113     287.512E-03     294.571E-03
            1781            2113     287.512E-03     294.571E-03
            1780            2113     287.512E-03     294.571E-03
            1764            2113     287.512E-03     294.571E-03
            1766            2114     312.214E-03     318.623E-03
            1765            2114     312.214E-03     318.623E-03
            1781            2114     312.214E-03     318.623E-03
            1782            2114     312.214E-03     318.623E-03
            1767            2115     337.062E-03     343.485E-03
            1783            2115     337.062E-03     343.485E-03
            1782            2115     337.062E-03     343.485E-03
            1766            2115     337.062E-03     343.485E-03
            1768            2116     359.096E-03     366.620E-03
            1783            2116     359.096E-03     366.620E-03
            1784            2116     359.096E-03     366.620E-03
            1767            2116     359.096E-03     366.620E-03
            1769            2117     45.1059E-03     44.0597E-03
            1786            2117     45.1059E-03     44.0597E-03
            1770            2117     45.1059E-03     44.0597E-03
            1785            2117     45.1059E-03     44.0597E-03
            1770            2118     56.6406E-03     59.5852E-03
            1786            2118     56.6406E-03     59.5852E-03
            1787            2118     56.6406E-03     59.5852E-03
            1771            2118     56.6406E-03     59.5852E-03
            1788            2119     72.0819E-03     75.7641E-03
            1771            2119     72.0819E-03     75.7641E-03
            1772            2119     72.0819E-03     75.7641E-03
            1787            2119     72.0819E-03     75.7641E-03
            1772            2120     91.3423E-03     94.7347E-03
            1773            2120     91.3423E-03     94.7347E-03
            1789            2120     91.3423E-03     94.7347E-03
            1788            2120     91.3423E-03     94.7347E-03
            1773            2121     112.023E-03     115.237E-03
            1789            2121     112.023E-03     115.237E-03
            1774            2121     112.023E-03     115.237E-03
            1790            2121     112.023E-03     115.237E-03
            1790            2122     133.428E-03     136.610E-03
            1774            2122     133.428E-03     136.610E-03
            1775            2122     133.428E-03     136.610E-03
            1791            2122     133.428E-03     136.610E-03
            1776            2123     155.338E-03     158.343E-03
            1791            2123     155.338E-03     158.343E-03
            1775            2123     155.338E-03     158.343E-03
            1792            2123     155.338E-03     158.343E-03
            1793            2124     177.392E-03     180.483E-03
            1776            2124     177.392E-03     180.483E-03
            1777            2124     177.392E-03     180.483E-03
            1792            2124     177.392E-03     180.483E-03
            1777            2125     199.822E-03     202.615E-03
            1794            2125     199.822E-03     202.615E-03
            1778            2125     199.822E-03     202.615E-03
            1793            2125     199.822E-03     202.615E-03
            1794            2126     222.071E-03     225.147E-03
            1779            2126     222.071E-03     225.147E-03
            1778            2126     222.071E-03     225.147E-03
            1795            2126     222.071E-03     225.147E-03
            1780            2127     244.795E-03     247.402E-03
            1795            2127     244.795E-03     247.402E-03
            1779            2127     244.795E-03     247.402E-03
            1796            2127     244.795E-03     247.402E-03
            1796            2128     267.128E-03     270.125E-03
            1780            2128     267.128E-03     270.125E-03
            1781            2128     267.128E-03     270.125E-03
            1797            2128     267.128E-03     270.125E-03
            1798            2129     289.176E-03     291.524E-03
            1797            2129     289.176E-03     291.524E-03
            1782            2129     289.176E-03     291.524E-03
            1781            2129     289.176E-03     291.524E-03
            1799            2130     313.229E-03     315.465E-03
            1782            2130     313.229E-03     315.465E-03
            1783            2130     313.229E-03     315.465E-03
            1798            2130     313.229E-03     315.465E-03
            1800            2131     339.071E-03     343.940E-03
            1799            2131     339.071E-03     343.940E-03
            1783            2131     339.071E-03     343.940E-03
            1784            2131     339.071E-03     343.940E-03
            1802            2132     43.1250E-03     45.6299E-03
            1786            2132     43.1250E-03     45.6299E-03
            1801            2132     43.1250E-03     45.6299E-03
            1785            2132     43.1250E-03     45.6299E-03
            1786            2133     48.6947E-03     59.8441E-03
            1787            2133     48.6947E-03     59.8441E-03
            1803            2133     48.6947E-03     59.8441E-03
            1802            2133     48.6947E-03     59.8441E-03
            1787            2134     60.8363E-03     75.2886E-03
            1804            2134     60.8363E-03     75.2886E-03
            1788            2134     60.8363E-03     75.2886E-03
            1803            2134     60.8363E-03     75.2886E-03
            1805            2135     77.5478E-03     93.4032E-03
            1788            2135     77.5478E-03     93.4032E-03
            1789            2135     77.5478E-03     93.4032E-03
            1804            2135     77.5478E-03     93.4032E-03
            1789            2136     96.1166E-03     112.559E-03
            1806            2136     96.1166E-03     112.559E-03
            1790            2136     96.1166E-03     112.559E-03
            1805            2136     96.1166E-03     112.559E-03
            1806            2137     115.489E-03     132.334E-03
            1807            2137     115.489E-03     132.334E-03
            1791            2137     115.489E-03     132.334E-03
            1790            2137     115.489E-03     132.334E-03
            1808            2138     135.380E-03     152.397E-03
            1807            2138     135.380E-03     152.397E-03
            1792            2138     135.380E-03     152.397E-03
            1791            2138     135.380E-03     152.397E-03
            1809            2139     155.507E-03     172.752E-03
            1792            2139     155.507E-03     172.752E-03
            1808            2139     155.507E-03     172.752E-03
            1793            2139     155.507E-03     172.752E-03
            1809            2140     175.893E-03     193.159E-03
            1793            2140     175.893E-03     193.159E-03
            1794            2140     175.893E-03     193.159E-03
            1810            2140     175.893E-03     193.159E-03
            1811            2141     196.364E-03     213.816E-03
            1810            2141     196.364E-03     213.816E-03
            1794            2141     196.364E-03     213.816E-03
            1795            2141     196.364E-03     213.816E-03
            1796            2142     216.995E-03     234.371E-03
            1812            2142     216.995E-03     234.371E-03
            1811            2142     216.995E-03     234.371E-03
            1795            2142     216.995E-03     234.371E-03
            1812            2143     237.808E-03     255.301E-03
            1813            2143     237.808E-03     255.301E-03
            1797            2143     237.808E-03     255.301E-03
            1796            2143     237.808E-03     255.301E-03
            1798            2144     258.126E-03     275.869E-03
            1814            2144     258.126E-03     275.869E-03
            1813            2144     258.126E-03     275.869E-03
            1797            2144     258.126E-03     275.869E-03
            1814            2145     280.758E-03     298.281E-03
            1798            2145     280.758E-03     298.281E-03
            1799            2145     280.758E-03     298.281E-03
            1815            2145     280.758E-03     298.281E-03
            1816            2146     315.883E-03     331.065E-03
            1800            2146     315.883E-03     331.065E-03
            1799            2146     315.883E-03     331.065E-03
            1815            2146     315.883E-03     331.065E-03
            1817            2147     55.0553E-03     54.9143E-03
            1818            2147     55.0553E-03     54.9143E-03
            1801            2147     55.0553E-03     54.9143E-03
            1802            2147     55.0553E-03     54.9143E-03
            1818            2148     65.1909E-03     62.5201E-03
            1802            2148     65.1909E-03     62.5201E-03
            1819            2148     65.1909E-03     62.5201E-03
            1803            2148     65.1909E-03     62.5201E-03
            1804            2149     78.8895E-03     74.6969E-03
            1820            2149     78.8895E-03     74.6969E-03
            1803            2149     78.8895E-03     74.6969E-03
            1819            2149     78.8895E-03     74.6969E-03
            1821            2150     95.1344E-03     90.4374E-03
            1820            2150     95.1344E-03     90.4374E-03
            1804            2150     95.1344E-03     90.4374E-03
            1805            2150     95.1344E-03     90.4374E-03
            1805            2151     113.083E-03     107.920E-03
            1822            2151     113.083E-03     107.920E-03
            1821            2151     113.083E-03     107.920E-03
            1806            2151     113.083E-03     107.920E-03
            1806            2152     131.917E-03     126.379E-03
            1823            2152     131.917E-03     126.379E-03
            1822            2152     131.917E-03     126.379E-03
            1807            2152     131.917E-03     126.379E-03
            1824            2153     151.272E-03     145.541E-03
            1807            2153     151.272E-03     145.541E-03
            1823            2153     151.272E-03     145.541E-03
            1808            2153     151.272E-03     145.541E-03
            1825            2154     171.020E-03     165.071E-03
            1824            2154     171.020E-03     165.071E-03
            1808            2154     171.020E-03     165.071E-03
            1809            2154     171.020E-03     165.071E-03
            1826            2155     190.926E-03     184.924E-03
            1809            2155     190.926E-03     184.924E-03
            1810            2155     190.926E-03     184.924E-03
            1825            2155     190.926E-03     184.924E-03
            1810            2156     211.053E-03     204.850E-03
            1811            2156     211.053E-03     204.850E-03
            1826            2156     211.053E-03     204.850E-03
            1827            2156     211.053E-03     204.850E-03
            1811            2157     231.069E-03     224.883E-03
            1827            2157     231.069E-03     224.883E-03
            1828            2157     231.069E-03     224.883E-03
            1812            2157     231.069E-03     224.883E-03
            1828            2158     251.303E-03     244.869E-03
            1812            2158     251.303E-03     244.869E-03
            1813            2158     251.303E-03     244.869E-03
            1829            2158     251.303E-03     244.869E-03
            1814            2159     271.464E-03     265.253E-03
            1829            2159     271.464E-03     265.253E-03
            1813            2159     271.464E-03     265.253E-03
            1830            2159     271.464E-03     265.253E-03
            1814            2160     291.808E-03     285.494E-03
            1815            2160     291.808E-03     285.494E-03
            1830            2160     291.808E-03     285.494E-03
            1831            2160     291.808E-03     285.494E-03
            1816            2161     297.605E-03     288.708E-03
            1831            2161     297.605E-03     288.708E-03
            1815            2161     297.605E-03     288.708E-03
            1832            2161     297.605E-03     288.708E-03
            2273            2468     422.255E-06     453.363E-06
            2289            2468     422.255E-06     453.363E-06
            2274            2468     422.255E-06     453.363E-06
            2290            2468     422.255E-06     453.363E-06
            2275            2469     320.127E-06     356.861E-06
            2290            2469     320.127E-06     356.861E-06
            2291            2469     320.127E-06     356.861E-06
            2274            2469     320.127E-06     356.861E-06
            2291            2470     285.300E-06     321.929E-06
            2292            2470     285.300E-06     321.929E-06
            2276            2470     285.300E-06     321.929E-06
            2275            2470     285.300E-06     321.929E-06
            2292            2471     274.743E-06     310.140E-06
            2293            2471     274.743E-06     310.140E-06
            2277            2471     274.743E-06     310.140E-06
            2276            2471     274.743E-06     310.140E-06
            2293            2472     266.060E-06     299.963E-06
            2277            2472     266.060E-06     299.963E-06
            2278            2472     266.060E-06     299.963E-06
            2294            2472     266.060E-06     299.963E-06
            2294            2473     257.770E-06     290.761E-06
            2279            2473     257.770E-06     290.761E-06
            2295            2473     257.770E-06     290.761E-06
            2278            2473     257.770E-06     290.761E-06
            2279            2474     249.260E-06     281.186E-06
            2296            2474     249.260E-06     281.186E-06
            2280            2474     249.260E-06     281.186E-06
            2295            2474     249.260E-06     281.186E-06
            2296            2475     241.572E-06     272.130E-06
            2281            2475     241.572E-06     272.130E-06
            2297            2475     241.572E-06     272.130E-06
            2280            2475     241.572E-06     272.130E-06
            2297            2476     234.622E-06     263.469E-06
            2282            2476     234.622E-06     263.469E-06
            2298            2476     234.622E-06     263.469E-06
            2281            2476     234.622E-06     263.469E-06
            2282            2477     229.065E-06     255.507E-06
            2299            2477     229.065E-06     255.507E-06
            2298            2477     229.065E-06     255.507E-06
            2283            2477     229.065E-06     255.507E-06
            2284            2478     224.624E-06     248.346E-06
            2283            2478     224.624E-06     248.346E-06
            2300            2478     224.624E-06     248.346E-06
            2299            2478     224.624E-06     248.346E-06
            2301            2479     221.836E-06     241.759E-06
            2284            2479     221.836E-06     241.759E-06
            2285            2479     221.836E-06     241.759E-06
            2300            2479     221.836E-06     241.759E-06
            2302            2480     219.816E-06     235.552E-06
            2285            2480     219.816E-06     235.552E-06
            2301            2480     219.816E-06     235.552E-06
            2286            2480     219.816E-06     235.552E-06
            2303            2481     216.670E-06     233.758E-06
            2286            2481     216.670E-06     233.758E-06
            2287            2481     216.670E-06     233.758E-06
            2302            2481     216.670E-06     233.758E-06
            2287            2482     215.865E-06     233.327E-06
            2288            2482     215.865E-06     233.327E-06
            2303            2482     215.865E-06     233.327E-06
            2304            2482     215.865E-06     233.327E-06
            2289            2483     353.825E-06     359.770E-06
            2305            2483     353.825E-06     359.770E-06
            2290            2483     353.825E-06     359.770E-06
            2306            2483     353.825E-06     359.770E-06
            2307            2484     320.496E-06     338.173E-06
            2306            2484     320.496E-06     338.173E-06
            2290            2484     320.496E-06     338.173E-06
            2291            2484     320.496E-06     338.173E-06
            2307            2485     302.794E-06     325.393E-06
            2292            2485     302.794E-06     325.393E-06
            2308            2485     302.794E-06     325.393E-06
            2291            2485     302.794E-06     325.393E-06
            2309            2486     294.049E-06     316.042E-06
            2293            2486     294.049E-06     316.042E-06
            2292            2486     294.049E-06     316.042E-06
            2308            2486     294.049E-06     316.042E-06
            2309            2487     283.925E-06     304.308E-06
            2310            2487     283.925E-06     304.308E-06
            2293            2487     283.925E-06     304.308E-06
            2294            2487     283.925E-06     304.308E-06
            2294            2488     272.525E-06     292.882E-06
            2310            2488     272.525E-06     292.882E-06
            2311            2488     272.525E-06     292.882E-06
            2295            2488     272.525E-06     292.882E-06
            2295            2489     262.967E-06     282.472E-06
            2312            2489     262.967E-06     282.472E-06
            2296            2489     262.967E-06     282.472E-06
            2311            2489     262.967E-06     282.472E-06
            2296            2490     254.165E-06     273.077E-06
            2312            2490     254.165E-06     273.077E-06
            2313            2490     254.165E-06     273.077E-06
            2297            2490     254.165E-06     273.077E-06
            2314            2491     246.911E-06     264.874E-06
            2313            2491     246.911E-06     264.874E-06
            2298            2491     246.911E-06     264.874E-06
            2297            2491     246.911E-06     264.874E-06
            2298            2492     240.849E-06     257.523E-06
            2314            2492     240.849E-06     257.523E-06
            2315            2492     240.849E-06     257.523E-06
            2299            2492     240.849E-06     257.523E-06
            2300            2493     235.952E-06     251.422E-06
            2316            2493     235.952E-06     251.422E-06
            2315            2493     235.952E-06     251.422E-06
            2299            2493     235.952E-06     251.422E-06
            2317            2494     232.625E-06     246.119E-06
            2300            2494     232.625E-06     246.119E-06
            2301            2494     232.625E-06     246.119E-06
            2316            2494     232.625E-06     246.119E-06
            2318            2495     230.908E-06     241.679E-06
            2301            2495     230.908E-06     241.679E-06
            2302            2495     230.908E-06     241.679E-06
            2317            2495     230.908E-06     241.679E-06
            2302            2496     231.771E-06     236.611E-06
            2319            2496     231.771E-06     236.611E-06
            2318            2496     231.771E-06     236.611E-06
            2303            2496     231.771E-06     236.611E-06
            2303            2497     239.791E-06     227.685E-06
            2304            2497     239.791E-06     227.685E-06
            2320            2497     239.791E-06     227.685E-06
            2319            2497     239.791E-06     227.685E-06
            2306            2498     252.186E-06     262.398E-06
            2321            2498     252.186E-06     262.398E-06
            2305            2498     252.186E-06     262.398E-06
            2322            2498     252.186E-06     262.398E-06
            2307            2499     281.062E-06     296.730E-06
            2306            2499     281.062E-06     296.730E-06
            2323            2499     281.062E-06     296.730E-06
            2322            2499     281.062E-06     296.730E-06
            2323            2500     310.683E-06     319.939E-06
            2307            2500     310.683E-06     319.939E-06
            2308            2500     310.683E-06     319.939E-06
            2324            2500     310.683E-06     319.939E-06
            2309            2501     308.226E-06     314.578E-06
            2325            2501     308.226E-06     314.578E-06
            2324            2501     308.226E-06     314.578E-06
            2308            2501     308.226E-06     314.578E-06
            2325            2502     296.954E-06     304.060E-06
            2309            2502     296.954E-06     304.060E-06
            2326            2502     296.954E-06     304.060E-06
            2310            2502     296.954E-06     304.060E-06
            2310            2503     285.931E-06     292.324E-06
            2326            2503     285.931E-06     292.324E-06
            2327            2503     285.931E-06     292.324E-06
            2311            2503     285.931E-06     292.324E-06
            2327            2504     275.327E-06     282.035E-06
            2311            2504     275.327E-06     282.035E-06
            2312            2504     275.327E-06     282.035E-06
            2328            2504     275.327E-06     282.035E-06
            2329            2505     266.763E-06     273.279E-06
            2313            2505     266.763E-06     273.279E-06
            2312            2505     266.763E-06     273.279E-06
            2328            2505     266.763E-06     273.279E-06
            2313            2506     259.378E-06     265.766E-06
            2329            2506     259.378E-06     265.766E-06
            2314            2506     259.378E-06     265.766E-06
            2330            2506     259.378E-06     265.766E-06
            2315            2507     253.173E-06     259.674E-06
            2314            2507     253.173E-06     259.674E-06
            2331            2507     253.173E-06     259.674E-06
            2330            2507     253.173E-06     259.674E-06
            2316            2508     248.252E-06     254.405E-06
            2332            2508     248.252E-06     254.405E-06
            2315            2508     248.252E-06     254.405E-06
            2331            2508     248.252E-06     254.405E-06
            2332            2509     244.001E-06     250.752E-06
            2317            2509     244.001E-06     250.752E-06
            2333            2509     244.001E-06     250.752E-06
            2316            2509     244.001E-06     250.752E-06
            2318            2510     242.116E-06     248.212E-06
            2333            2510     242.116E-06     248.212E-06
            2317            2510     242.116E-06     248.212E-06
            2334            2510     242.116E-06     248.212E-06
            2335            2511     247.601E-06     239.922E-06
            2334            2511     247.601E-06     239.922E-06
            2319            2511     247.601E-06     239.922E-06
            2318            2511     247.601E-06     239.922E-06
            2319            2512     253.281E-06     227.150E-06
            2336            2512     253.281E-06     227.150E-06
            2335            2512     253.281E-06     227.150E-06
            2320            2512     253.281E-06     227.150E-06
            2338            2513     170.671E-06     171.489E-06
            2322            2513     170.671E-06     171.489E-06
            2321            2513     170.671E-06     171.489E-06
            2337            2513     170.671E-06     171.489E-06
            2322            2514     249.824E-06     251.290E-06
            2339            2514     249.824E-06     251.290E-06
            2338            2514     249.824E-06     251.290E-06
            2323            2514     249.824E-06     251.290E-06
            2324            2515     302.281E-06     294.255E-06
            2339            2515     302.281E-06     294.255E-06
            2340            2515     302.281E-06     294.255E-06
            2323            2515     302.281E-06     294.255E-06
            2341            2516     309.259E-06     300.277E-06
            2324            2516     309.259E-06     300.277E-06
            2340            2516     309.259E-06     300.277E-06
            2325            2516     309.259E-06     300.277E-06
            2341            2517     303.533E-06     294.926E-06
            2326            2517     303.533E-06     294.926E-06
            2342            2517     303.533E-06     294.926E-06
            2325            2517     303.533E-06     294.926E-06
            2343            2518     294.868E-06     287.071E-06
            2342            2518     294.868E-06     287.071E-06
            2327            2518     294.868E-06     287.071E-06
            2326            2518     294.868E-06     287.071E-06
            2327            2519     286.515E-06     279.333E-06
            2343            2519     286.515E-06     279.333E-06
            2328            2519     286.515E-06     279.333E-06
            2344            2519     286.515E-06     279.333E-06
            2328            2520     278.907E-06     272.472E-06
            2344            2520     278.907E-06     272.472E-06
            2345            2520     278.907E-06     272.472E-06
            2329            2520     278.907E-06     272.472E-06
            2345            2521     272.232E-06     266.718E-06
            2329            2521     272.232E-06     266.718E-06
            2330            2521     272.232E-06     266.718E-06
            2346            2521     272.232E-06     266.718E-06
            2347            2522     266.400E-06     261.736E-06
            2330            2522     266.400E-06     261.736E-06
            2346            2522     266.400E-06     261.736E-06
            2331            2522     266.400E-06     261.736E-06
            2347            2523     261.176E-06     257.981E-06
            2332            2523     261.176E-06     257.981E-06
            2348            2523     261.176E-06     257.981E-06
            2331            2523     261.176E-06     257.981E-06
            2348            2524     256.947E-06     255.042E-06
            2332            2524     256.947E-06     255.042E-06
            2333            2524     256.947E-06     255.042E-06
            2349            2524     256.947E-06     255.042E-06
            2333            2525     253.355E-06     253.400E-06
            2349            2525     253.355E-06     253.400E-06
            2334            2525     253.355E-06     253.400E-06
            2350            2525     253.355E-06     253.400E-06
            2334            2526     251.457E-06     253.159E-06
            2351            2526     251.457E-06     253.159E-06
            2350            2526     251.457E-06     253.159E-06
            2335            2526     251.457E-06     253.159E-06
            2336            2527     258.091E-06     247.699E-06
            2351            2527     258.091E-06     247.699E-06
            2352            2527     258.091E-06     247.699E-06
            2335            2527     258.091E-06     247.699E-06
            2353            2528     131.732E-06     140.974E-06
            2337            2528     131.732E-06     140.974E-06
            2338            2528     131.732E-06     140.974E-06
            2354            2528     131.732E-06     140.974E-06
            2339            2529     230.402E-06     200.695E-06
            2355            2529     230.402E-06     200.695E-06
            2338            2529     230.402E-06     200.695E-06
            2354            2529     230.402E-06     200.695E-06
            2340            2530     279.742E-06     252.154E-06
            2339            2530     279.742E-06     252.154E-06
            2356            2530     279.742E-06     252.154E-06
            2355            2530     279.742E-06     252.154E-06
            2340            2531     299.585E-06     274.146E-06
            2357            2531     299.585E-06     274.146E-06
            2341            2531     299.585E-06     274.146E-06
            2356            2531     299.585E-06     274.146E-06
            2358            2532     304.160E-06     279.557E-06
            2357            2532     304.160E-06     279.557E-06
            2342            2532     304.160E-06     279.557E-06
            2341            2532     304.160E-06     279.557E-06
            2342            2533     301.551E-06     278.889E-06
            2358            2533     301.551E-06     278.889E-06
            2343            2533     301.551E-06     278.889E-06
            2359            2533     301.551E-06     278.889E-06
            2343            2534     296.993E-06     275.578E-06
            2360            2534     296.993E-06     275.578E-06
            2344            2534     296.993E-06     275.578E-06
            2359            2534     296.993E-06     275.578E-06
            2360            2535     291.426E-06     271.746E-06
            2345            2535     291.426E-06     271.746E-06
            2361            2535     291.426E-06     271.746E-06
            2344            2535     291.426E-06     271.746E-06
            2346            2536     285.822E-06     267.958E-06
            2362            2536     285.822E-06     267.958E-06
            2345            2536     285.822E-06     267.958E-06
            2361            2536     285.822E-06     267.958E-06
            2346            2537     280.461E-06     264.572E-06
            2363            2537     280.461E-06     264.572E-06
            2362            2537     280.461E-06     264.572E-06
            2347            2537     280.461E-06     264.572E-06
            2363            2538     275.279E-06     261.925E-06
            2348            2538     275.279E-06     261.925E-06
            2347            2538     275.279E-06     261.925E-06
            2364            2538     275.279E-06     261.925E-06
            2364            2539     270.749E-06     259.861E-06
            2348            2539     270.749E-06     259.861E-06
            2365            2539     270.749E-06     259.861E-06
            2349            2539     270.749E-06     259.861E-06
            2366            2540     265.724E-06     258.740E-06
            2349            2540     265.724E-06     258.740E-06
            2365            2540     265.724E-06     258.740E-06
            2350            2540     265.724E-06     258.740E-06
            2367            2541     258.556E-06     262.813E-06
            2350            2541     258.556E-06     262.813E-06
            2366            2541     258.556E-06     262.813E-06
            2351            2541     258.556E-06     262.813E-06
            2367            2542     252.702E-06     270.564E-06
            2368            2542     252.702E-06     270.564E-06
            2352            2542     252.702E-06     270.564E-06
            2351            2542     252.702E-06     270.564E-06
            2545            2693     215.862E-06     233.384E-06
            2562            2693     215.862E-06     233.384E-06
            2546            2693     215.862E-06     233.384E-06
            2561            2693     215.862E-06     233.384E-06
            2546            2694     216.685E-06     233.730E-06
            2562            2694     216.685E-06     233.730E-06
            2547            2694     216.685E-06     233.730E-06
            2563            2694     216.685E-06     233.730E-06
            2548            2695     219.793E-06     235.486E-06
            2547            2695     219.793E-06     235.486E-06
            2564            2695     219.793E-06     235.486E-06
            2563            2695     219.793E-06     235.486E-06
            2565            2696     221.741E-06     241.651E-06
            2549            2696     221.741E-06     241.651E-06
            2564            2696     221.741E-06     241.651E-06
            2548            2696     221.741E-06     241.651E-06
            2566            2697     224.455E-06     248.158E-06
            2565            2697     224.455E-06     248.158E-06
            2550            2697     224.455E-06     248.158E-06
            2549            2697     224.455E-06     248.158E-06
            2566            2698     228.813E-06     255.236E-06
            2551            2698     228.813E-06     255.236E-06
            2550            2698     228.813E-06     255.236E-06
            2567            2698     228.813E-06     255.236E-06
            2567            2699     234.276E-06     263.110E-06
            2568            2699     234.276E-06     263.110E-06
            2551            2699     234.276E-06     263.110E-06
            2552            2699     234.276E-06     263.110E-06
            2568            2700     241.129E-06     271.680E-06
            2569            2700     241.129E-06     271.680E-06
            2552            2700     241.129E-06     271.680E-06
            2553            2700     241.129E-06     271.680E-06
            2569            2701     248.723E-06     280.649E-06
            2570            2701     248.723E-06     280.649E-06
            2553            2701     248.723E-06     280.649E-06
            2554            2701     248.723E-06     280.649E-06
            2571            2702     257.145E-06     290.136E-06
            2554            2702     257.145E-06     290.136E-06
            2555            2702     257.145E-06     290.136E-06
            2570            2702     257.145E-06     290.136E-06
            2571            2703     265.344E-06     299.240E-06
            2572            2703     265.344E-06     299.240E-06
            2556            2703     265.344E-06     299.240E-06
            2555            2703     265.344E-06     299.240E-06
            2557            2704     273.887E-06     309.279E-06
            2573            2704     273.887E-06     309.279E-06
            2572            2704     273.887E-06     309.279E-06
            2556            2704     273.887E-06     309.279E-06
            2573            2705     284.094E-06     320.750E-06
            2574            2705     284.094E-06     320.750E-06
            2558            2705     284.094E-06     320.750E-06
            2557            2705     284.094E-06     320.750E-06
            2575            2706     318.311E-06     355.115E-06
            2574            2706     318.311E-06     355.115E-06
            2558            2706     318.311E-06     355.115E-06
            2559            2706     318.311E-06     355.115E-06
            2559            2707     419.719E-06     450.960E-06
            2560            2707     419.719E-06     450.960E-06
            2575            2707     419.719E-06     450.960E-06
            2576            2707     419.719E-06     450.960E-06
            2577            2708     239.677E-06     227.607E-06
            2562            2708     239.677E-06     227.607E-06
            2578            2708     239.677E-06     227.607E-06
            2561            2708     239.677E-06     227.607E-06
            2563            2709     231.612E-06     236.524E-06
            2579            2709     231.612E-06     236.524E-06
            2562            2709     231.612E-06     236.524E-06
            2578            2709     231.612E-06     236.524E-06
            2563            2710     230.720E-06     241.521E-06
            2580            2710     230.720E-06     241.521E-06
            2579            2710     230.720E-06     241.521E-06
            2564            2710     230.720E-06     241.521E-06
            2581            2711     232.395E-06     245.887E-06
            2565            2711     232.395E-06     245.887E-06
            2564            2711     232.395E-06     245.887E-06
            2580            2711     232.395E-06     245.887E-06
            2581            2712     235.664E-06     251.118E-06
            2565            2712     235.664E-06     251.118E-06
            2582            2712     235.664E-06     251.118E-06
            2566            2712     235.664E-06     251.118E-06
            2566            2713     240.482E-06     257.142E-06
            2567            2713     240.482E-06     257.142E-06
            2583            2713     240.482E-06     257.142E-06
            2582            2713     240.482E-06     257.142E-06
            2583            2714     246.451E-06     264.403E-06
            2568            2714     246.451E-06     264.403E-06
            2567            2714     246.451E-06     264.403E-06
            2584            2714     246.451E-06     264.403E-06
            2569            2715     253.601E-06     272.505E-06
            2568            2715     253.601E-06     272.505E-06
            2585            2715     253.601E-06     272.505E-06
            2584            2715     253.601E-06     272.505E-06
            2569            2716     262.293E-06     281.790E-06
            2570            2716     262.293E-06     281.790E-06
            2586            2716     262.293E-06     281.790E-06
            2585            2716     262.293E-06     281.790E-06
            2587            2717     271.740E-06     292.091E-06
            2570            2717     271.740E-06     292.091E-06
            2571            2717     271.740E-06     292.091E-06
            2586            2717     271.740E-06     292.091E-06
            2571            2718     283.049E-06     303.413E-06
            2572            2718     283.049E-06     303.413E-06
            2587            2718     283.049E-06     303.413E-06
            2588            2718     283.049E-06     303.413E-06
            2573            2719     293.121E-06     315.082E-06
            2589            2719     293.121E-06     315.082E-06
            2588            2719     293.121E-06     315.082E-06
            2572            2719     293.121E-06     315.082E-06
            2589            2720     301.749E-06     324.346E-06
            2573            2720     301.749E-06     324.346E-06
            2574            2720     301.749E-06     324.346E-06
            2590            2720     301.749E-06     324.346E-06
            2575            2721     319.104E-06     336.867E-06
            2590            2721     319.104E-06     336.867E-06
            2574            2721     319.104E-06     336.867E-06
            2591            2721     319.104E-06     336.867E-06
            2575            2722     351.844E-06     357.852E-06
            2591            2722     351.844E-06     357.852E-06
            2592            2722     351.844E-06     357.852E-06
            2576            2722     351.844E-06     357.852E-06
            2577            2723     253.108E-06     226.911E-06
            2594            2723     253.108E-06     226.911E-06
            2593            2723     253.108E-06     226.911E-06
            2578            2723     253.108E-06     226.911E-06
            2579            2724     247.318E-06     239.758E-06
            2595            2724     247.318E-06     239.758E-06
            2594            2724     247.318E-06     239.758E-06
            2578            2724     247.318E-06     239.758E-06
            2595            2725     241.794E-06     247.967E-06
            2579            2725     241.794E-06     247.967E-06
            2580            2725     241.794E-06     247.967E-06
            2596            2725     241.794E-06     247.967E-06
            2597            2726     243.675E-06     250.409E-06
            2596            2726     243.675E-06     250.409E-06
            2581            2726     243.675E-06     250.409E-06
            2580            2726     243.675E-06     250.409E-06
            2582            2727     247.874E-06     254.009E-06
            2581            2727     247.874E-06     254.009E-06
            2597            2727     247.874E-06     254.009E-06
            2598            2727     247.874E-06     254.009E-06
            2583            2728     252.724E-06     259.209E-06
            2598            2728     252.724E-06     259.209E-06
            2582            2728     252.724E-06     259.209E-06
            2599            2728     252.724E-06     259.209E-06
            2600            2729     258.843E-06     265.215E-06
            2584            2729     258.843E-06     265.215E-06
            2599            2729     258.843E-06     265.215E-06
            2583            2729     258.843E-06     265.215E-06
            2585            2730     266.126E-06     272.626E-06
            2601            2730     266.126E-06     272.626E-06
            2600            2730     266.126E-06     272.626E-06
            2584            2730     266.126E-06     272.626E-06
            2585            2731     274.574E-06     281.267E-06
            2586            2731     274.574E-06     281.267E-06
            2601            2731     274.574E-06     281.267E-06
            2602            2731     274.574E-06     281.267E-06
            2587            2732     285.067E-06     291.436E-06
            2586            2732     285.067E-06     291.436E-06
            2602            2732     285.067E-06     291.436E-06
            2603            2732     285.067E-06     291.436E-06
            2603            2733     296.013E-06     303.096E-06
            2587            2733     296.013E-06     303.096E-06
            2604            2733     296.013E-06     303.096E-06
            2588            2733     296.013E-06     303.096E-06
            2605            2734     307.305E-06     313.607E-06
            2588            2734     307.305E-06     313.607E-06
            2604            2734     307.305E-06     313.607E-06
            2589            2734     307.305E-06     313.607E-06
            2590            2735     310.012E-06     319.160E-06
            2606            2735     310.012E-06     319.160E-06
            2589            2735     310.012E-06     319.160E-06
            2605            2735     310.012E-06     319.160E-06
            2607            2736     280.430E-06     296.081E-06
            2591            2736     280.430E-06     296.081E-06
            2590            2736     280.430E-06     296.081E-06
            2606            2736     280.430E-06     296.081E-06
            2591            2737     250.836E-06     261.088E-06
            2592            2737     250.836E-06     261.088E-06
            2607            2737     250.836E-06     261.088E-06
            2608            2737     250.836E-06     261.088E-06
            2594            2738     257.764E-06     247.376E-06
            2593            2738     257.764E-06     247.376E-06
            2609            2738     257.764E-06     247.376E-06
            2610            2738     257.764E-06     247.376E-06
            2611            2739     251.114E-06     252.811E-06
            2594            2739     251.114E-06     252.811E-06
            2610            2739     251.114E-06     252.811E-06
            2595            2739     251.114E-06     252.811E-06
            2611            2740     252.993E-06     253.014E-06
            2596            2740     252.993E-06     253.014E-06
            2595            2740     252.993E-06     253.014E-06
            2612            2740     252.993E-06     253.014E-06
            2613            2741     256.544E-06     254.621E-06
            2596            2741     256.544E-06     254.621E-06
            2612            2741     256.544E-06     254.621E-06
            2597            2741     256.544E-06     254.621E-06
            2598            2742     260.729E-06     257.512E-06
            2614            2742     260.729E-06     257.512E-06
            2613            2742     260.729E-06     257.512E-06
            2597            2742     260.729E-06     257.512E-06
            2599            2743     265.897E-06     261.212E-06
            2614            2743     265.897E-06     261.212E-06
            2598            2743     265.897E-06     261.212E-06
            2615            2743     265.897E-06     261.212E-06
            2615            2744     271.663E-06     266.126E-06
            2600            2744     271.663E-06     266.126E-06
            2616            2744     271.663E-06     266.126E-06
            2599            2744     271.663E-06     266.126E-06
            2617            2745     278.261E-06     271.799E-06
            2600            2745     278.261E-06     271.799E-06
            2616            2745     278.261E-06     271.799E-06
            2601            2745     278.261E-06     271.799E-06
            2602            2746     285.783E-06     278.572E-06
            2618            2746     285.783E-06     278.572E-06
            2601            2746     285.783E-06     278.572E-06
            2617            2746     285.783E-06     278.572E-06
            2602            2747     294.058E-06     286.234E-06
            2618            2747     294.058E-06     286.234E-06
            2603            2747     294.058E-06     286.234E-06
            2619            2747     294.058E-06     286.234E-06
            2620            2748     302.696E-06     294.055E-06
            2603            2748     302.696E-06     294.055E-06
            2619            2748     302.696E-06     294.055E-06
            2604            2748     302.696E-06     294.055E-06
            2621            2749     308.516E-06     299.485E-06
            2605            2749     308.516E-06     299.485E-06
            2620            2749     308.516E-06     299.485E-06
            2604            2749     308.516E-06     299.485E-06
            2622            2750     301.895E-06     293.750E-06
            2621            2750     301.895E-06     293.750E-06
            2606            2750     301.895E-06     293.750E-06
            2605            2750     301.895E-06     293.750E-06
            2623            2751     249.857E-06     251.185E-06
            2607            2751     249.857E-06     251.185E-06
            2622            2751     249.857E-06     251.185E-06
            2606            2751     249.857E-06     251.185E-06
            2607            2752     169.973E-06     170.808E-06
            2608            2752     169.973E-06     170.808E-06
            2624            2752     169.973E-06     170.808E-06
            2623            2752     169.973E-06     170.808E-06
            2625            2753     252.284E-06     270.115E-06
            2626            2753     252.284E-06     270.115E-06
            2610            2753     252.284E-06     270.115E-06
            2609            2753     252.284E-06     270.115E-06
            2610            2754     258.164E-06     262.316E-06
            2626            2754     258.164E-06     262.316E-06
            2627            2754     258.164E-06     262.316E-06
            2611            2754     258.164E-06     262.316E-06
            2628            2755     265.306E-06     258.243E-06
            2611            2755     265.306E-06     258.243E-06
            2612            2755     265.306E-06     258.243E-06
            2627            2755     265.306E-06     258.243E-06
            2613            2756     270.281E-06     259.364E-06
            2628            2756     270.281E-06     259.364E-06
            2629            2756     270.281E-06     259.364E-06
            2612            2756     270.281E-06     259.364E-06
            2613            2757     274.773E-06     261.391E-06
            2614            2757     274.773E-06     261.391E-06
            2629            2757     274.773E-06     261.391E-06
            2630            2757     274.773E-06     261.391E-06
            2615            2758     279.918E-06     263.996E-06
            2630            2758     279.918E-06     263.996E-06
            2614            2758     279.918E-06     263.996E-06
            2631            2758     279.918E-06     263.996E-06
            2616            2759     285.239E-06     267.340E-06
            2615            2759     285.239E-06     267.340E-06
            2631            2759     285.239E-06     267.340E-06
            2632            2759     285.239E-06     267.340E-06
            2633            2760     290.806E-06     271.087E-06
            2632            2760     290.806E-06     271.087E-06
            2616            2760     290.806E-06     271.087E-06
            2617            2760     290.806E-06     271.087E-06
            2618            2761     296.349E-06     274.892E-06
            2634            2761     296.349E-06     274.892E-06
            2617            2761     296.349E-06     274.892E-06
            2633            2761     296.349E-06     274.892E-06
            2619            2762     300.910E-06     278.208E-06
            2634            2762     300.910E-06     278.208E-06
            2618            2762     300.910E-06     278.208E-06
            2635            2762     300.910E-06     278.208E-06
            2635            2763     303.584E-06     278.941E-06
            2619            2763     303.584E-06     278.941E-06
            2620            2763     303.584E-06     278.941E-06
            2636            2763     303.584E-06     278.941E-06
            2637            2764     299.189E-06     273.707E-06
            2620            2764     299.189E-06     273.707E-06
            2636            2764     299.189E-06     273.707E-06
            2621            2764     299.189E-06     273.707E-06
            2638            2765     279.604E-06     251.995E-06
            2621            2765     279.604E-06     251.995E-06
            2637            2765     279.604E-06     251.995E-06
            2622            2765     279.604E-06     251.995E-06
            2623            2766     230.737E-06     200.962E-06
            2639            2766     230.737E-06     200.962E-06
            2638            2766     230.737E-06     200.962E-06
            2622            2766     230.737E-06     200.962E-06
            2640            2767     131.654E-06     140.937E-06
            2639            2767     131.654E-06     140.937E-06
            2623            2767     131.654E-06     140.937E-06
            2624            2767     131.654E-06     140.937E-06
            3028            3027     43.8163E-03     45.8510E-03
            3027            3027     43.8163E-03     45.8510E-03
            3012            3027     43.8163E-03     45.8510E-03
            3011            3027     43.8163E-03     45.8510E-03
            3029            3028     45.9882E-03     55.1217E-03
            3028            3028     45.9882E-03     55.1217E-03
            3012            3028     45.9882E-03     55.1217E-03
            3013            3028     45.9882E-03     55.1217E-03
            3014            3029     52.5333E-03     65.0495E-03
            3029            3029     52.5333E-03     65.0495E-03
            3013            3029     52.5333E-03     65.0495E-03
            3030            3029     52.5333E-03     65.0495E-03
            3031            3030     63.1181E-03     77.5537E-03
            3014            3030     63.1181E-03     77.5537E-03
            3030            3030     63.1181E-03     77.5537E-03
            3015            3030     63.1181E-03     77.5537E-03
            3016            3031     75.6225E-03     91.0478E-03
            3031            3031     75.6225E-03     91.0478E-03
            3032            3031     75.6225E-03     91.0478E-03
            3015            3031     75.6225E-03     91.0478E-03
            3032            3032     89.1246E-03     105.223E-03
            3033            3032     89.1246E-03     105.223E-03
            3017            3032     89.1246E-03     105.223E-03
            3016            3032     89.1246E-03     105.223E-03
            3034            3033     103.301E-03     119.735E-03
            3018            3033     103.301E-03     119.735E-03
            3017            3033     103.301E-03     119.735E-03
            3033            3033     103.301E-03     119.735E-03
            3018            3034     117.822E-03     134.593E-03
            3035            3034     117.822E-03     134.593E-03
            3019            3034     117.822E-03     134.593E-03
            3034            3034     117.822E-03     134.593E-03
            3036            3035     132.672E-03     149.535E-03
            3019            3035     132.672E-03     149.535E-03
            3020            3035     132.672E-03     149.535E-03
            3035            3035     132.672E-03     149.535E-03
            3020            3036     147.664E-03     164.764E-03
            3036            3036     147.664E-03     164.764E-03
            3021            3036     147.664E-03     164.764E-03
            3037            3036     147.664E-03     164.764E-03
            3038            3037     162.846E-03     179.918E-03
            3037            3037     162.846E-03     179.918E-03
            3022            3037     162.846E-03     179.918E-03
            3021            3037     162.846E-03     179.918E-03
            3039            3038     178.296E-03     195.459E-03
            3023            3038     178.296E-03     195.459E-03
            3022            3038     178.296E-03     195.459E-03
            3038            3038     178.296E-03     195.459E-03
            3023            3039     193.267E-03     210.699E-03
            3040            3039     193.267E-03     210.699E-03
            3039            3039     193.267E-03     210.699E-03
            3024            3039     193.267E-03     210.699E-03
            3025            3040     209.770E-03     226.994E-03
            3040            3040     209.770E-03     226.994E-03
            3024            3040     209.770E-03     226.994E-03
            3041            3040     209.770E-03     226.994E-03
            3041            3041     237.765E-03     253.000E-03
            3026            3041     237.765E-03     253.000E-03
            3025            3041     237.765E-03     253.000E-03
            3042            3041     237.765E-03     253.000E-03
            3027            3042     52.2933E-03     51.3786E-03
            3043            3042     52.2933E-03     51.3786E-03
            3044            3042     52.2933E-03     51.3786E-03
            3028            3042     52.2933E-03     51.3786E-03
            3045            3043     59.1087E-03     55.6421E-03
            3044            3043     59.1087E-03     55.6421E-03
            3029            3043     59.1087E-03     55.6421E-03
            3028            3043     59.1087E-03     55.6421E-03
            3029            3044     68.1857E-03     62.8318E-03
            3030            3044     68.1857E-03     62.8318E-03
            3045            3044     68.1857E-03     62.8318E-03
            3046            3044     68.1857E-03     62.8318E-03
            3030            3045     79.3673E-03     73.0892E-03
            3031            3045     79.3673E-03     73.0892E-03
            3046            3045     79.3673E-03     73.0892E-03
            3047            3045     79.3673E-03     73.0892E-03
            3048            3046     91.9966E-03     84.9366E-03
            3047            3046     91.9966E-03     84.9366E-03
            3031            3046     91.9966E-03     84.9366E-03
            3032            3046     91.9966E-03     84.9366E-03
            3049            3047     105.434E-03     97.8104E-03
            3048            3047     105.434E-03     97.8104E-03
            3032            3047     105.434E-03     97.8104E-03
            3033            3047     105.434E-03     97.8104E-03
            3033            3048     119.395E-03     111.442E-03
            3034            3048     119.395E-03     111.442E-03
            3049            3048     119.395E-03     111.442E-03
            3050            3048     119.395E-03     111.442E-03
            3034            3049     133.767E-03     125.498E-03
            3051            3049     133.767E-03     125.498E-03
            3050            3049     133.767E-03     125.498E-03
            3035            3049     133.767E-03     125.498E-03
            3035            3050     148.327E-03     139.933E-03
            3036            3050     148.327E-03     139.933E-03
            3052            3050     148.327E-03     139.933E-03
            3051            3050     148.327E-03     139.933E-03
            3037            3051     163.141E-03     154.500E-03
            3036            3051     163.141E-03     154.500E-03
            3052            3051     163.141E-03     154.500E-03
            3053            3051     163.141E-03     154.500E-03
            3054            3052     177.887E-03     169.237E-03
            3053            3052     177.887E-03     169.237E-03
            3037            3052     177.887E-03     169.237E-03
            3038            3052     177.887E-03     169.237E-03
            3038            3053     192.798E-03     183.841E-03
            3054            3053     192.798E-03     183.841E-03
            3039            3053     192.798E-03     183.841E-03
            3055            3053     192.798E-03     183.841E-03
            3040            3054     207.763E-03     198.994E-03
            3056            3054     207.763E-03     198.994E-03
            3039            3054     207.763E-03     198.994E-03
            3055            3054     207.763E-03     198.994E-03
            3040            3055     223.668E-03     214.764E-03
            3056            3055     223.668E-03     214.764E-03
            3041            3055     223.668E-03     214.764E-03
            3057            3055     223.668E-03     214.764E-03
            3058            3056     223.975E-03     212.789E-03
            3042            3056     223.975E-03     212.789E-03
            3041            3056     223.975E-03     212.789E-03
            3057            3056     223.975E-03     212.789E-03
            3044            3057     46.4334E-03     47.2777E-03
            3060            3057     46.4334E-03     47.2777E-03
            3059            3057     46.4334E-03     47.2777E-03
            3043            3057     46.4334E-03     47.2777E-03
            3045            3058     52.8123E-03     51.0099E-03
            3061            3058     52.8123E-03     51.0099E-03
            3044            3058     52.8123E-03     51.0099E-03
            3060            3058     52.8123E-03     51.0099E-03
            3045            3059     58.9353E-03     55.9240E-03
            3061            3059     58.9353E-03     55.9240E-03
            3046            3059     58.9353E-03     55.9240E-03
            3062            3059     58.9353E-03     55.9240E-03
            3046            3060     66.2295E-03     63.0275E-03
            3063            3060     66.2295E-03     63.0275E-03
            3047            3060     66.2295E-03     63.0275E-03
            3062            3060     66.2295E-03     63.0275E-03
            3063            3061     74.4583E-03     71.2033E-03
            3047            3061     74.4583E-03     71.2033E-03
            3064            3061     74.4583E-03     71.2033E-03
            3048            3061     74.4583E-03     71.2033E-03
            3049            3062     83.5182E-03     80.2502E-03
            3064            3062     83.5182E-03     80.2502E-03
            3065            3062     83.5182E-03     80.2502E-03
            3048            3062     83.5182E-03     80.2502E-03
            3049            3063     93.0352E-03     89.8309E-03
            3065            3063     93.0352E-03     89.8309E-03
            3066            3063     93.0352E-03     89.8309E-03
            3050            3063     93.0352E-03     89.8309E-03
            3050            3064     102.996E-03     99.7557E-03
            3066            3064     102.996E-03     99.7557E-03
            3051            3064     102.996E-03     99.7557E-03
            3067            3064     102.996E-03     99.7557E-03
            3068            3065     113.148E-03     109.984E-03
            3052            3065     113.148E-03     109.984E-03
            3051            3065     113.148E-03     109.984E-03
            3067            3065     113.148E-03     109.984E-03
            3069            3066     123.500E-03     120.276E-03
            3068            3066     123.500E-03     120.276E-03
            3053            3066     123.500E-03     120.276E-03
            3052            3066     123.500E-03     120.276E-03
            3070            3067     134.106E-03     130.951E-03
            3053            3067     134.106E-03     130.951E-03
            3054            3067     134.106E-03     130.951E-03
            3069            3067     134.106E-03     130.951E-03
            3054            3068     145.168E-03     141.992E-03
            3055            3068     145.168E-03     141.992E-03
            3071            3068     145.168E-03     141.992E-03
            3070            3068     145.168E-03     141.992E-03
            3072            3069     159.131E-03     155.701E-03
            3071            3069     159.131E-03     155.701E-03
            3055            3069     159.131E-03     155.701E-03
            3056            3069     159.131E-03     155.701E-03
            3057            3070     175.328E-03     173.236E-03
            3072            3070     175.328E-03     173.236E-03
            3056            3070     175.328E-03     173.236E-03
            3073            3070     175.328E-03     173.236E-03
            3058            3071     193.789E-03     197.896E-03
            3074            3071     193.789E-03     197.896E-03
            3073            3071     193.789E-03     197.896E-03
            3057            3071     193.789E-03     197.896E-03
            3075            3072     41.0697E-03     43.1224E-03
            3076            3072     41.0697E-03     43.1224E-03
            3060            3072     41.0697E-03     43.1224E-03
            3059            3072     41.0697E-03     43.1224E-03
            3077            3073     42.4196E-03     46.5430E-03
            3061            3073     42.4196E-03     46.5430E-03
            3076            3073     42.4196E-03     46.5430E-03
            3060            3073     42.4196E-03     46.5430E-03
            3061            3074     44.5381E-03     50.4163E-03
            3077            3074     44.5381E-03     50.4163E-03
            3078            3074     44.5381E-03     50.4163E-03
            3062            3074     44.5381E-03     50.4163E-03
            3062            3075     47.6065E-03     55.3458E-03
            3079            3075     47.6065E-03     55.3458E-03
            3078            3075     47.6065E-03     55.3458E-03
            3063            3075     47.6065E-03     55.3458E-03
            3064            3076     51.4450E-03     60.7199E-03
            3079            3076     51.4450E-03     60.7199E-03
            3080            3076     51.4450E-03     60.7199E-03
            3063            3076     51.4450E-03     60.7199E-03
            3080            3077     56.0639E-03     66.4572E-03
            3081            3077     56.0639E-03     66.4572E-03
            3065            3077     56.0639E-03     66.4572E-03
            3064            3077     56.0639E-03     66.4572E-03
            3065            3078     61.2737E-03     72.4415E-03
            3081            3078     61.2737E-03     72.4415E-03
            3082            3078     61.2737E-03     72.4415E-03
            3066            3078     61.2737E-03     72.4415E-03
            3082            3079     66.9208E-03     78.6928E-03
            3067            3079     66.9208E-03     78.6928E-03
            3066            3079     66.9208E-03     78.6928E-03
            3083            3079     66.9208E-03     78.6928E-03
            3067            3080     72.8353E-03     85.0331E-03
            3068            3080     72.8353E-03     85.0331E-03
            3083            3080     72.8353E-03     85.0331E-03
            3084            3080     72.8353E-03     85.0331E-03
            3068            3081     79.0858E-03     91.6497E-03
            3084            3081     79.0858E-03     91.6497E-03
            3085            3081     79.0858E-03     91.6497E-03
            3069            3081     79.0858E-03     91.6497E-03
            3085            3082     85.5930E-03     98.4990E-03
            3086            3082     85.5930E-03     98.4990E-03
            3069            3082     85.5930E-03     98.4990E-03
            3070            3082     85.5930E-03     98.4990E-03
            3071            3083     93.8296E-03     106.934E-03
            3086            3083     93.8296E-03     106.934E-03
            3070            3083     93.8296E-03     106.934E-03
            3087            3083     93.8296E-03     106.934E-03
            3088            3084     105.106E-03     118.568E-03
            3071            3084     105.106E-03     118.568E-03
            3072            3084     105.106E-03     118.568E-03
            3087            3084     105.106E-03     118.568E-03
            3073            3085     127.627E-03     141.294E-03
            3072            3085     127.627E-03     141.294E-03
            3088            3085     127.627E-03     141.294E-03
            3089            3085     127.627E-03     141.294E-03
            3073            3086     177.734E-03     189.317E-03
            3090            3086     177.734E-03     189.317E-03
            3089            3086     177.734E-03     189.317E-03
            3074            3086     177.734E-03     189.317E-03
            3075            3087     46.7682E-03     43.8514E-03
            3076            3087     46.7682E-03     43.8514E-03
            3092            3087     46.7682E-03     43.8514E-03
            3091            3087     46.7682E-03     43.8514E-03
            3077            3088     47.8857E-03     49.0259E-03
            3093            3088     47.8857E-03     49.0259E-03
            3092            3088     47.8857E-03     49.0259E-03
            3076            3088     47.8857E-03     49.0259E-03
            3077            3089     49.8768E-03     53.1137E-03
            3094            3089     49.8768E-03     53.1137E-03
            3078            3089     49.8768E-03     53.1137E-03
            3093            3089     49.8768E-03     53.1137E-03
            3094            3090     52.8536E-03     57.4685E-03
            3095            3090     52.8536E-03     57.4685E-03
            3078            3090     52.8536E-03     57.4685E-03
            3079            3090     52.8536E-03     57.4685E-03
            3095            3091     56.6030E-03     62.3788E-03
            3079            3091     56.6030E-03     62.3788E-03
            3096            3091     56.6030E-03     62.3788E-03
            3080            3091     56.6030E-03     62.3788E-03
            3081            3092     61.1630E-03     67.6549E-03
            3096            3092     61.1630E-03     67.6549E-03
            3080            3092     61.1630E-03     67.6549E-03
            3097            3092     61.1630E-03     67.6549E-03
            3097            3093     66.3867E-03     73.4462E-03
            3098            3093     66.3867E-03     73.4462E-03
            3082            3093     66.3867E-03     73.4462E-03
            3081            3093     66.3867E-03     73.4462E-03
            3099            3094     72.0921E-03     79.5752E-03
            3098            3094     72.0921E-03     79.5752E-03
            3083            3094     72.0921E-03     79.5752E-03
            3082            3094     72.0921E-03     79.5752E-03
            3099            3095     78.2457E-03     86.0736E-03
            3100            3095     78.2457E-03     86.0736E-03
            3083            3095     78.2457E-03     86.0736E-03
            3084            3095     78.2457E-03     86.0736E-03
            3100            3096     84.6511E-03     92.8282E-03
            3084            3096     84.6511E-03     92.8282E-03
            3101            3096     84.6511E-03     92.8282E-03
            3085            3096     84.6511E-03     92.8282E-03
            3085            3097     91.5677E-03     100.046E-03
            3086            3097     91.5677E-03     100.046E-03
            3102            3097     91.5677E-03     100.046E-03
            3101            3097     91.5677E-03     100.046E-03
            3103            3098     98.9301E-03     107.922E-03
            3086            3098     98.9301E-03     107.922E-03
            3102            3098     98.9301E-03     107.922E-03
            3087            3098     98.9301E-03     107.922E-03
            3087            3099     109.090E-03     117.773E-03
            3103            3099     109.090E-03     117.773E-03
            3104            3099     109.090E-03     117.773E-03
            3088            3099     109.090E-03     117.773E-03
            3105            3100     129.492E-03     135.518E-03
            3088            3100     129.492E-03     135.518E-03
            3089            3100     129.492E-03     135.518E-03
            3104            3100     129.492E-03     135.518E-03
            3106            3101     161.853E-03     162.850E-03
            3105            3101     161.853E-03     162.850E-03
            3090            3101     161.853E-03     162.850E-03
            3089            3101     161.853E-03     162.850E-03
            3107            3102     51.2704E-03     46.2829E-03
            3091            3102     51.2704E-03     46.2829E-03
            3092            3102     51.2704E-03     46.2829E-03
            3108            3102     51.2704E-03     46.2829E-03
            3108            3103     53.0452E-03     50.9666E-03
            3109            3103     53.0452E-03     50.9666E-03
            3092            3103     53.0452E-03     50.9666E-03
            3093            3103     53.0452E-03     50.9666E-03
            3110            3104     54.8834E-03     55.7486E-03
            3109            3104     54.8834E-03     55.7486E-03
            3093            3104     54.8834E-03     55.7486E-03
            3094            3104     54.8834E-03     55.7486E-03
            3111            3105     57.5882E-03     59.7663E-03
            3110            3105     57.5882E-03     59.7663E-03
            3094            3105     57.5882E-03     59.7663E-03
            3095            3105     57.5882E-03     59.7663E-03
            3112            3106     61.3626E-03     63.9490E-03
            3111            3106     61.3626E-03     63.9490E-03
            3095            3106     61.3626E-03     63.9490E-03
            3096            3106     61.3626E-03     63.9490E-03
            3112            3107     65.8896E-03     68.8333E-03
            3096            3107     65.8896E-03     68.8333E-03
            3113            3107     65.8896E-03     68.8333E-03
            3097            3107     65.8896E-03     68.8333E-03
            3097            3108     71.0556E-03     74.2691E-03
            3113            3108     71.0556E-03     74.2691E-03
            3098            3108     71.0556E-03     74.2691E-03
            3114            3108     71.0556E-03     74.2691E-03
            3114            3109     76.8368E-03     80.2691E-03
            3099            3109     76.8368E-03     80.2691E-03
            3115            3109     76.8368E-03     80.2691E-03
            3098            3109     76.8368E-03     80.2691E-03
            3099            3110     83.1115E-03     86.7700E-03
            3115            3110     83.1115E-03     86.7700E-03
            3116            3110     83.1115E-03     86.7700E-03
            3100            3110     83.1115E-03     86.7700E-03
            3101            3111     89.8195E-03     93.6765E-03
            3116            3111     89.8195E-03     93.6765E-03
            3100            3111     89.8195E-03     93.6765E-03
            3117            3111     89.8195E-03     93.6765E-03
            3117            3112     96.8111E-03     100.989E-03
            3102            3112     96.8111E-03     100.989E-03
            3118            3112     96.8111E-03     100.989E-03
            3101            3112     96.8111E-03     100.989E-03
            3102            3113     103.438E-03     108.066E-03
            3118            3113     103.438E-03     108.066E-03
            3119            3113     103.438E-03     108.066E-03
            3103            3113     103.438E-03     108.066E-03
            3103            3114     110.229E-03     114.987E-03
            3104            3114     110.229E-03     114.987E-03
            3120            3114     110.229E-03     114.987E-03
            3119            3114     110.229E-03     114.987E-03
            3121            3115     117.941E-03     121.710E-03
            3104            3115     117.941E-03     121.710E-03
            3105            3115     117.941E-03     121.710E-03
            3120            3115     117.941E-03     121.710E-03
            3106            3116     132.561E-03     136.088E-03
            3122            3116     132.561E-03     136.088E-03
            3121            3116     132.561E-03     136.088E-03
            3105            3116     132.561E-03     136.088E-03
            3124            3117     55.2514E-03     50.4478E-03
            3107            3117     55.2514E-03     50.4478E-03
            3123            3117     55.2514E-03     50.4478E-03
            3108            3117     55.2514E-03     50.4478E-03
            3124            3118     57.0848E-03     55.0501E-03
            3108            3118     57.0848E-03     55.0501E-03
            3109            3118     57.0848E-03     55.0501E-03
            3125            3118     57.0848E-03     55.0501E-03
            3110            3119     59.0100E-03     58.7753E-03
            3125            3119     59.0100E-03     58.7753E-03
            3109            3119     59.0100E-03     58.7753E-03
            3126            3119     59.0100E-03     58.7753E-03
            3110            3120     62.0021E-03     61.9066E-03
            3127            3120     62.0021E-03     61.9066E-03
            3111            3120     62.0021E-03     61.9066E-03
            3126            3120     62.0021E-03     61.9066E-03
            3128            3121     65.8093E-03     65.5392E-03
            3127            3121     65.8093E-03     65.5392E-03
            3111            3121     65.8093E-03     65.5392E-03
            3112            3121     65.8093E-03     65.5392E-03
            3112            3122     70.2178E-03     69.8664E-03
            3128            3122     70.2178E-03     69.8664E-03
            3113            3122     70.2178E-03     69.8664E-03
            3129            3122     70.2178E-03     69.8664E-03
            3114            3123     75.2492E-03     74.8384E-03
            3129            3123     75.2492E-03     74.8384E-03
            3130            3123     75.2492E-03     74.8384E-03
            3113            3123     75.2492E-03     74.8384E-03
            3114            3124     80.8460E-03     80.4177E-03
            3130            3124     80.8460E-03     80.4177E-03
            3115            3124     80.8460E-03     80.4177E-03
            3131            3124     80.8460E-03     80.4177E-03
            3115            3125     86.9441E-03     86.5040E-03
            3132            3125     86.9441E-03     86.5040E-03
            3116            3125     86.9441E-03     86.5040E-03
            3131            3125     86.9441E-03     86.5040E-03
            3133            3126     93.5189E-03     93.0966E-03
            3116            3126     93.5189E-03     93.0966E-03
            3117            3126     93.5189E-03     93.0966E-03
            3132            3126     93.5189E-03     93.0966E-03
            3117            3127     99.8624E-03     99.6099E-03
            3133            3127     99.8624E-03     99.6099E-03
            3118            3127     99.8624E-03     99.6099E-03
            3134            3127     99.8624E-03     99.6099E-03
            3118            3128     105.724E-03     105.591E-03
            3134            3128     105.724E-03     105.591E-03
            3119            3128     105.724E-03     105.591E-03
            3135            3128     105.724E-03     105.591E-03
            3119            3129     106.693E-03     108.072E-03
            3120            3129     106.693E-03     108.072E-03
            3135            3129     106.693E-03     108.072E-03
            3136            3129     106.693E-03     108.072E-03
            3120            3130     100.897E-03     104.170E-03
            3137            3130     100.897E-03     104.170E-03
            3121            3130     100.897E-03     104.170E-03
            3136            3130     100.897E-03     104.170E-03
            3137            3131     105.250E-03     105.651E-03
            3138            3131     105.250E-03     105.651E-03
            3122            3131     105.250E-03     105.651E-03
            3121            3131     105.250E-03     105.651E-03
            3124            3132     58.5918E-03     57.3141E-03
            3140            3132     58.5918E-03     57.3141E-03
            3123            3132     58.5918E-03     57.3141E-03
            3139            3132     58.5918E-03     57.3141E-03
            3140            3133     59.9037E-03     60.5088E-03
            3124            3133     59.9037E-03     60.5088E-03
            3125            3133     59.9037E-03     60.5088E-03
            3141            3133     59.9037E-03     60.5088E-03
            3126            3134     62.8192E-03     61.8432E-03
            3141            3134     62.8192E-03     61.8432E-03
            3125            3134     62.8192E-03     61.8432E-03
            3142            3134     62.8192E-03     61.8432E-03
            3127            3135     66.3445E-03     64.0529E-03
            3126            3135     66.3445E-03     64.0529E-03
            3143            3135     66.3445E-03     64.0529E-03
            3142            3135     66.3445E-03     64.0529E-03
            3143            3136     70.0825E-03     67.2140E-03
            3127            3136     70.0825E-03     67.2140E-03
            3128            3136     70.0825E-03     67.2140E-03
            3144            3136     70.0825E-03     67.2140E-03
            3128            3137     74.3277E-03     70.9214E-03
            3144            3137     74.3277E-03     70.9214E-03
            3129            3137     74.3277E-03     70.9214E-03
            3145            3137     74.3277E-03     70.9214E-03
            3145            3138     79.0288E-03     75.2354E-03
            3129            3138     79.0288E-03     75.2354E-03
            3130            3138     79.0288E-03     75.2354E-03
            3146            3138     79.0288E-03     75.2354E-03
            3131            3139     84.1287E-03     80.0000E-03
            3146            3139     84.1287E-03     80.0000E-03
            3147            3139     84.1287E-03     80.0000E-03
            3130            3139     84.1287E-03     80.0000E-03
            3132            3140     89.6095E-03     85.1707E-03
            3147            3140     89.6095E-03     85.1707E-03
            3131            3140     89.6095E-03     85.1707E-03
            3148            3140     89.6095E-03     85.1707E-03
            3149            3141     95.1327E-03     90.4409E-03
            3133            3141     95.1327E-03     90.4409E-03
            3148            3141     95.1327E-03     90.4409E-03
            3132            3141     95.1327E-03     90.4409E-03
            3134            3142     100.457E-03     95.4699E-03
            3149            3142     100.457E-03     95.4699E-03
            3133            3142     100.457E-03     95.4699E-03
            3150            3142     100.457E-03     95.4699E-03
            3135            3143     103.630E-03     98.7138E-03
            3150            3143     103.630E-03     98.7138E-03
            3151            3143     103.630E-03     98.7138E-03
            3134            3143     103.630E-03     98.7138E-03
            3135            3144     102.084E-03     97.7223E-03
            3151            3144     102.084E-03     97.7223E-03
            3152            3144     102.084E-03     97.7223E-03
            3136            3144     102.084E-03     97.7223E-03
            3136            3145     88.0425E-03     86.0656E-03
            3153            3145     88.0425E-03     86.0656E-03
            3137            3145     88.0425E-03     86.0656E-03
            3152            3145     88.0425E-03     86.0656E-03
            3138            3146     77.9273E-03     77.1549E-03
            3153            3146     77.9273E-03     77.1549E-03
            3137            3146     77.9273E-03     77.1549E-03
            3154            3146     77.9273E-03     77.1549E-03
            3139            3147     59.9332E-03     64.5925E-03
            3140            3147     59.9332E-03     64.5925E-03
            3155            3147     59.9332E-03     64.5925E-03
            3156            3147     59.9332E-03     64.5925E-03
            3157            3148     63.6298E-03     64.0226E-03
            3140            3148     63.6298E-03     64.0226E-03
            3156            3148     63.6298E-03     64.0226E-03
            3141            3148     63.6298E-03     64.0226E-03
            3157            3149     67.2559E-03     64.5717E-03
            3141            3149     67.2559E-03     64.5717E-03
            3158            3149     67.2559E-03     64.5717E-03
            3142            3149     67.2559E-03     64.5717E-03
            3158            3150     70.7689E-03     66.5837E-03
            3142            3150     70.7689E-03     66.5837E-03
            3143            3150     70.7689E-03     66.5837E-03
            3159            3150     70.7689E-03     66.5837E-03
            3144            3151     74.4465E-03     69.1889E-03
            3159            3151     74.4465E-03     69.1889E-03
            3143            3151     74.4465E-03     69.1889E-03
            3160            3151     74.4465E-03     69.1889E-03
            3145            3152     78.4615E-03     72.3357E-03
            3160            3152     78.4615E-03     72.3357E-03
            3161            3152     78.4615E-03     72.3357E-03
            3144            3152     78.4615E-03     72.3357E-03
            3145            3153     82.6931E-03     75.8180E-03
            3161            3153     82.6931E-03     75.8180E-03
            3162            3153     82.6931E-03     75.8180E-03
            3146            3153     82.6931E-03     75.8180E-03
            3146            3154     87.1140E-03     79.5318E-03
            3162            3154     87.1140E-03     79.5318E-03
            3163            3154     87.1140E-03     79.5318E-03
            3147            3154     87.1140E-03     79.5318E-03
            3163            3155     91.4501E-03     83.2599E-03
            3147            3155     91.4501E-03     83.2599E-03
            3148            3155     91.4501E-03     83.2599E-03
            3164            3155     91.4501E-03     83.2599E-03
            3164            3156     95.4528E-03     86.5643E-03
            3148            3156     95.4528E-03     86.5643E-03
            3149            3156     95.4528E-03     86.5643E-03
            3165            3156     95.4528E-03     86.5643E-03
            3149            3157     98.3331E-03     88.8177E-03
            3165            3157     98.3331E-03     88.8177E-03
            3166            3157     98.3331E-03     88.8177E-03
            3150            3157     98.3331E-03     88.8177E-03
            3167            3158     98.6669E-03     88.3899E-03
            3166            3158     98.6669E-03     88.3899E-03
            3150            3158     98.6669E-03     88.3899E-03
            3151            3158     98.6669E-03     88.3899E-03
            3152            3159     94.3088E-03     82.9724E-03
            3167            3159     94.3088E-03     82.9724E-03
            3168            3159     94.3088E-03     82.9724E-03
            3151            3159     94.3088E-03     82.9724E-03
            3153            3160     79.1486E-03     67.5441E-03
            3168            3160     79.1486E-03     67.5441E-03
            3152            3160     79.1486E-03     67.5441E-03
            3169            3160     79.1486E-03     67.5441E-03
            3169            3161     58.8560E-03     56.4931E-03
            3170            3161     58.8560E-03     56.4931E-03
            3153            3161     58.8560E-03     56.4931E-03
            3154            3161     58.8560E-03     56.4931E-03
            3172            3162     30.4778E-03     33.6671E-03
            3171            3162     30.4778E-03     33.6671E-03
            3155            3162     30.4778E-03     33.6671E-03
            3156            3162     30.4778E-03     33.6671E-03
            3157            3163     33.7117E-03     33.3085E-03
            3173            3163     33.7117E-03     33.3085E-03
            3156            3163     33.7117E-03     33.3085E-03
            3172            3163     33.7117E-03     33.3085E-03
            3174            3164     35.7437E-03     34.0127E-03
            3158            3164     35.7437E-03     34.0127E-03
            3173            3164     35.7437E-03     34.0127E-03
            3157            3164     35.7437E-03     34.0127E-03
            3158            3165     37.8619E-03     35.4548E-03
            3174            3165     37.8619E-03     35.4548E-03
            3159            3165     37.8619E-03     35.4548E-03
            3175            3165     37.8619E-03     35.4548E-03
            3176            3166     40.0494E-03     36.9978E-03
            3175            3166     40.0494E-03     36.9978E-03
            3159            3166     40.0494E-03     36.9978E-03
            3160            3166     40.0494E-03     36.9978E-03
            3161            3167     42.3752E-03     38.7978E-03
            3160            3167     42.3752E-03     38.7978E-03
            3177            3167     42.3752E-03     38.7978E-03
            3176            3167     42.3752E-03     38.7978E-03
            3162            3168     44.7587E-03     40.7196E-03
            3161            3168     44.7587E-03     40.7196E-03
            3177            3168     44.7587E-03     40.7196E-03
            3178            3168     44.7587E-03     40.7196E-03
            3179            3169     47.1507E-03     42.6602E-03
            3178            3169     47.1507E-03     42.6602E-03
            3162            3169     47.1507E-03     42.6602E-03
            3163            3169     47.1507E-03     42.6602E-03
            3163            3170     49.3929E-03     44.5020E-03
            3164            3170     49.3929E-03     44.5020E-03
            3180            3170     49.3929E-03     44.5020E-03
            3179            3170     49.3929E-03     44.5020E-03
            3165            3171     51.3220E-03     46.0050E-03
            3164            3171     51.3220E-03     46.0050E-03
            3180            3171     51.3220E-03     46.0050E-03
            3181            3171     51.3220E-03     46.0050E-03
            3166            3172     52.3642E-03     46.5984E-03
            3165            3172     52.3642E-03     46.5984E-03
            3182            3172     52.3642E-03     46.5984E-03
            3181            3172     52.3642E-03     46.5984E-03
            3167            3173     52.2790E-03     45.8718E-03
            3182            3173     52.2790E-03     45.8718E-03
            3166            3173     52.2790E-03     45.8718E-03
            3183            3173     52.2790E-03     45.8718E-03
            3167            3174     49.1977E-03     41.9782E-03
            3183            3174     49.1977E-03     41.9782E-03
            3168            3174     49.1977E-03     41.9782E-03
            3184            3174     49.1977E-03     41.9782E-03
            3168            3175     42.8765E-03     34.2198E-03
            3169            3175     42.8765E-03     34.2198E-03
            3184            3175     42.8765E-03     34.2198E-03
            3185            3175     42.8765E-03     34.2198E-03
            3186            3176     31.9774E-03     30.3581E-03
            3170            3176     31.9774E-03     30.3581E-03
            3185            3176     31.9774E-03     30.3581E-03
            3169            3176     31.9774E-03     30.3581E-03


  Minimum                            67.0317E-06     114.656E-06
      At Element                            2640            2640
            Node                             566             566

  Maximum                            405.739E-03     424.425E-03
      At Element                            1073            1768
            Node                             317              16

           Total                         395.898         408.536


Field Output reported at element nodes for region: CRJ700-1.Region_4
   Computation algorithm: EXTRAPOLATE_COMPUTE_AVERAGE
   Averaged at nodes
   Averaging regions: ODB_REGIONS

   Element Label      Node Label         S.Mises         S.Mises
                                          @Loc 1          @Loc 2
-----------------------------------------------------------------
            1089               1     707.168E-06     629.865E-06
             545               1     707.168E-06     629.865E-06
            1688               4     26.3343E-03     27.6175E-03
            1617               4     26.3343E-03     27.6175E-03
            1074               5     2.73745E-03     2.80273E-03
             560               5     2.73745E-03     2.80273E-03
             640               6     71.3107E-06     153.926E-06
             625               7     232.183E-06     286.868E-06
            1673              11     354.744E-03     367.817E-03
            1602              11     354.744E-03     367.817E-03
            2656              18     54.4321E-03     66.4998E-03
            1752              18     54.4321E-03     66.4998E-03
            1737              20     390.243E-03     420.958E-03
            2641              20     390.243E-03     420.958E-03
            2720              22     38.4179E-03     43.6537E-03
            2384              22     38.4179E-03     43.6537E-03
            2369              23     262.630E-03     275.067E-03
            2705              23     262.630E-03     275.067E-03
            2529              26     7.03386E-03     7.29578E-03
            2915              26     7.03386E-03     7.29578E-03
            2544              30     3.86731E-03     4.13136E-03
            2930              30     3.86731E-03     4.13136E-03
            3010              32     231.758E-06     286.357E-06
            2995              34     71.0490E-06     153.934E-06
            1601              99     14.1741E-03     10.7312E-03
            1617              99     14.1741E-03     10.7312E-03
            1585             100     16.6861E-03     10.2830E-03
            1601             100     16.6861E-03     10.2830E-03
            1585             101     22.7780E-03     17.3729E-03
            1569             101     22.7780E-03     17.3729E-03
            1553             102     34.2967E-03     31.8387E-03
            1569             102     34.2967E-03     31.8387E-03
            1537             103     40.0972E-03     48.7039E-03
            1553             103     40.0972E-03     48.7039E-03
            1537             104     25.0721E-03     33.1554E-03
            1521             104     25.0721E-03     33.1554E-03
            1505             105     12.5413E-03     8.32445E-03
            1521             105     12.5413E-03     8.32445E-03
            1489             106     14.4301E-03     6.33919E-03
            1505             106     14.4301E-03     6.33919E-03
            1473             107     18.9637E-03     14.3398E-03
            1489             107     18.9637E-03     14.3398E-03
            1457             108     26.8910E-03     23.2649E-03
            1473             108     26.8910E-03     23.2649E-03
            1457             109     36.2059E-03     35.2336E-03
            1441             109     36.2059E-03     35.2336E-03
            1441             110     40.5709E-03     48.6958E-03
            1425             110     40.5709E-03     48.6958E-03
            1425             111     25.1389E-03     29.6905E-03
            1409             111     25.1389E-03     29.6905E-03
            1409             112     11.8152E-03     6.19271E-03
            1393             112     11.8152E-03     6.19271E-03
            1393             113     14.6568E-03     8.82787E-03
            1377             113     14.6568E-03     8.82787E-03
            1361             114     19.5122E-03     15.9339E-03
            1377             114     19.5122E-03     15.9339E-03
            1345             115     25.4052E-03     22.3713E-03
            1361             115     25.4052E-03     22.3713E-03
            1345             116     32.2692E-03     31.2429E-03
            1329             116     32.2692E-03     31.2429E-03
            1329             117     35.1891E-03     41.5703E-03
            1313             117     35.1891E-03     41.5703E-03
            1313             118     24.3179E-03     28.0245E-03
            1297             118     24.3179E-03     28.0245E-03
            1281             119     15.1851E-03     11.4684E-03
            1297             119     15.1851E-03     11.4684E-03
            1281             120     17.9317E-03     14.6260E-03
            1265             120     17.9317E-03     14.6260E-03
            1249             121     21.8392E-03     18.4615E-03
            1265             121     21.8392E-03     18.4615E-03
            1249             122     26.2415E-03     24.4446E-03
            1233             122     26.2415E-03     24.4446E-03
            1233             123     27.9718E-03     31.7645E-03
            1217             123     27.9718E-03     31.7645E-03
            1217             124     22.7773E-03     25.9129E-03
            1201             124     22.7773E-03     25.9129E-03
            1185             125     18.6559E-03     18.2134E-03
            1201             125     18.6559E-03     18.2134E-03
            1185             126     20.2335E-03     17.8455E-03
            1169             126     20.2335E-03     17.8455E-03
            1153             127     21.7939E-03     19.1428E-03
            1169             127     21.7939E-03     19.1428E-03
            1137             128     23.3607E-03     20.8108E-03
            1153             128     23.3607E-03     20.8108E-03
            1137             129     25.2624E-03     23.7212E-03
            1121             129     25.2624E-03     23.7212E-03
            1121             130     25.4242E-03     28.1511E-03
            1105             130     25.4242E-03     28.1511E-03
            1105             131     13.0633E-03     15.0999E-03
            1089             131     13.0633E-03     15.0999E-03
             546             132     714.477E-06     636.520E-06
            1088             132     714.477E-06     636.520E-06
             545             132     714.477E-06     636.520E-06
            1089             132     714.477E-06     636.520E-06
             546             133     746.153E-06     676.306E-06
            1087             133     746.153E-06     676.306E-06
             547             133     746.153E-06     676.306E-06
            1088             133     746.153E-06     676.306E-06
            1087             134     810.594E-06     760.506E-06
             547             134     810.594E-06     760.506E-06
            1086             134     810.594E-06     760.506E-06
             548             134     810.594E-06     760.506E-06
            1086             135     904.436E-06     873.370E-06
             549             135     904.436E-06     873.370E-06
            1085             135     904.436E-06     873.370E-06
             548             135     904.436E-06     873.370E-06
            1085             136     1.01921E-03     1.00373E-03
            1084             136     1.01921E-03     1.00373E-03
             549             136     1.01921E-03     1.00373E-03
             550             136     1.01921E-03     1.00373E-03
             551             137     1.14821E-03     1.14538E-03
             550             137     1.14821E-03     1.14538E-03
            1083             137     1.14821E-03     1.14538E-03
            1084             137     1.14821E-03     1.14538E-03
             551             138     1.28729E-03     1.29400E-03
            1082             138     1.28729E-03     1.29400E-03
             552             138     1.28729E-03     1.29400E-03
            1083             138     1.28729E-03     1.29400E-03
            1082             139     1.43340E-03     1.44772E-03
            1081             139     1.43340E-03     1.44772E-03
             552             139     1.43340E-03     1.44772E-03
             553             139     1.43340E-03     1.44772E-03
             554             140     1.58415E-03     1.60457E-03
            1080             140     1.58415E-03     1.60457E-03
            1081             140     1.58415E-03     1.60457E-03
             553             140     1.58415E-03     1.60457E-03
             555             141     1.73875E-03     1.76385E-03
            1079             141     1.73875E-03     1.76385E-03
            1080             141     1.73875E-03     1.76385E-03
             554             141     1.73875E-03     1.76385E-03
            1079             142     1.89489E-03     1.92435E-03
            1078             142     1.89489E-03     1.92435E-03
             556             142     1.89489E-03     1.92435E-03
             555             142     1.89489E-03     1.92435E-03
             556             143     2.05362E-03     2.08638E-03
             557             143     2.05362E-03     2.08638E-03
            1078             143     2.05362E-03     2.08638E-03
            1077             143     2.05362E-03     2.08638E-03
            1076             144     2.21563E-03     2.25216E-03
            1077             144     2.21563E-03     2.25216E-03
             557             144     2.21563E-03     2.25216E-03
             558             144     2.21563E-03     2.25216E-03
             558             145     2.38838E-03     2.42998E-03
             559             145     2.38838E-03     2.42998E-03
            1076             145     2.38838E-03     2.42998E-03
            1075             145     2.38838E-03     2.42998E-03
             559             146     2.60901E-03     2.66346E-03
            1075             146     2.60901E-03     2.66346E-03
             560             146     2.60901E-03     2.66346E-03
            1074             146     2.60901E-03     2.66346E-03
             576             147     494.991E-06     520.447E-06
             560             147     494.991E-06     520.447E-06
             592             148     375.069E-06     372.493E-06
             576             148     375.069E-06     372.493E-06
             608             149     248.745E-06     252.106E-06
             592             149     248.745E-06     252.106E-06
             624             150     135.873E-06     127.256E-06
             608             150     135.873E-06     127.256E-06
             624             151     67.8608E-06     115.274E-06
             640             151     67.8608E-06     115.274E-06
             640             152     131.584E-06     146.924E-06
             639             152     131.584E-06     146.924E-06
             639             153     215.524E-06     172.427E-06
             638             153     215.524E-06     172.427E-06
             638             154     265.080E-06     228.281E-06
             637             154     265.080E-06     228.281E-06
             636             155     293.861E-06     258.825E-06
             637             155     293.861E-06     258.825E-06
             636             156     302.659E-06     271.113E-06
             635             156     302.659E-06     271.113E-06
             635             157     305.335E-06     274.615E-06
             634             157     305.335E-06     274.615E-06
             634             158     301.935E-06     273.658E-06
             633             158     301.935E-06     273.658E-06
             633             159     298.091E-06     271.689E-06
             632             159     298.091E-06     271.689E-06
             631             160     292.775E-06     268.615E-06
             632             160     292.775E-06     268.615E-06
             631             161     287.718E-06     266.383E-06
             630             161     287.718E-06     266.383E-06
             629             162     282.721E-06     263.863E-06
             630             162     282.721E-06     263.863E-06
             628             163     277.650E-06     262.694E-06
             629             163     277.650E-06     262.694E-06
             627             164     272.406E-06     261.654E-06
             628             164     272.406E-06     261.654E-06
             627             165     266.454E-06     264.211E-06
             626             165     266.454E-06     264.211E-06
             625             166     247.219E-06     277.135E-06
             626             166     247.219E-06     277.135E-06
             625             167     250.985E-06     274.185E-06
             609             167     250.985E-06     274.185E-06
             609             168     264.515E-06     242.251E-06
             593             168     264.515E-06     242.251E-06
             577             169     254.095E-06     221.310E-06
             593             169     254.095E-06     221.310E-06
             561             170     246.111E-06     221.858E-06
             577             170     246.111E-06     221.858E-06
             561             171     217.045E-06     231.991E-06
             545             171     217.045E-06     231.991E-06
            1074             194     9.83428E-03     12.5508E-03
            1090             194     9.83428E-03     12.5508E-03
            1090             195     20.2228E-03     23.0786E-03
            1106             195     20.2228E-03     23.0786E-03
            1106             196     33.4695E-03     32.9399E-03
            1122             196     33.4695E-03     32.9399E-03
            1122             197     48.4403E-03     47.3004E-03
            1138             197     48.4403E-03     47.3004E-03
            1154             198     61.5746E-03     63.4175E-03
            1138             198     61.5746E-03     63.4175E-03
            1154             199     77.8072E-03     77.0247E-03
            1170             199     77.8072E-03     77.0247E-03
            1186             200     91.6757E-03     95.5468E-03
            1170             200     91.6757E-03     95.5468E-03
            1186             201     87.2981E-03     90.2306E-03
            1202             201     87.2981E-03     90.2306E-03
            1218             202     87.6559E-03     84.9091E-03
            1202             202     87.6559E-03     84.9091E-03
            1218             203     107.135E-03     107.678E-03
            1234             203     107.135E-03     107.678E-03
            1234             204     123.702E-03     126.748E-03
            1250             204     123.702E-03     126.748E-03
            1250             205     140.478E-03     140.580E-03
            1266             205     140.478E-03     140.580E-03
            1282             206     154.255E-03     158.165E-03
            1266             206     154.255E-03     158.165E-03
            1282             207     149.517E-03     153.843E-03
            1298             207     149.517E-03     153.843E-03
            1298             208     152.772E-03     149.081E-03
            1314             208     152.772E-03     149.081E-03
            1314             209     171.457E-03     173.654E-03
            1330             209     171.457E-03     173.654E-03
            1330             210     189.526E-03     191.142E-03
            1346             210     189.526E-03     191.142E-03
            1346             211     203.355E-03     207.908E-03
            1362             211     203.355E-03     207.908E-03
            1362             212     219.111E-03     219.951E-03
            1378             212     219.111E-03     219.951E-03
            1394             213     231.010E-03     234.779E-03
            1378             213     231.010E-03     234.779E-03
            1394             214     223.413E-03     229.621E-03
            1410             214     223.413E-03     229.621E-03
            1410             215     227.687E-03     224.003E-03
            1426             215     227.687E-03     224.003E-03
            1426             216     247.297E-03     250.223E-03
            1442             216     247.297E-03     250.223E-03
            1458             217     265.576E-03     268.511E-03
            1442             217     265.576E-03     268.511E-03
            1458             218     279.229E-03     285.056E-03
            1474             218     279.229E-03     285.056E-03
            1490             219     294.340E-03     295.903E-03
            1474             219     294.340E-03     295.903E-03
            1506             220     304.865E-03     308.572E-03
            1490             220     304.865E-03     308.572E-03
            1506             221     295.601E-03     303.643E-03
            1522             221     295.601E-03     303.643E-03
            1522             222     300.433E-03     298.579E-03
            1538             222     300.433E-03     298.579E-03
            1554             223     323.410E-03     325.178E-03
            1538             223     323.410E-03     325.178E-03
            1570             224     339.146E-03     348.087E-03
            1554             224     339.146E-03     348.087E-03
            1586             225     355.496E-03     356.776E-03
            1570             225     355.496E-03     356.776E-03
            1602             226     364.351E-03     368.993E-03
            1586             226     364.351E-03     368.993E-03
            1752             339     65.3897E-03     73.1214E-03
            1736             339     65.3897E-03     73.1214E-03
            1736             340     41.7674E-03     44.3504E-03
            1720             340     41.7674E-03     44.3504E-03
            1720             341     33.3677E-03     25.8417E-03
            1704             341     33.3677E-03     25.8417E-03
            1688             342     36.9401E-03     33.1407E-03
            1704             342     36.9401E-03     33.1407E-03
            1688             343     27.7314E-03     31.3174E-03
            1687             343     27.7314E-03     31.3174E-03
            1616             343     27.7314E-03     31.3174E-03
            1617             343     27.7314E-03     31.3174E-03
            1615             344     37.7416E-03     44.7216E-03
            1616             344     37.7416E-03     44.7216E-03
            1687             344     37.7416E-03     44.7216E-03
            1686             344     37.7416E-03     44.7216E-03
            1686             345     56.5150E-03     64.9182E-03
            1685             345     56.5150E-03     64.9182E-03
            1614             345     56.5150E-03     64.9182E-03
            1615             345     56.5150E-03     64.9182E-03
            1613             346     77.2994E-03     86.2863E-03
            1685             346     77.2994E-03     86.2863E-03
            1684             346     77.2994E-03     86.2863E-03
            1614             346     77.2994E-03     86.2863E-03
            1684             347     98.9105E-03     108.116E-03
            1683             347     98.9105E-03     108.116E-03
            1612             347     98.9105E-03     108.116E-03
            1613             347     98.9105E-03     108.116E-03
            1683             348     120.909E-03     130.189E-03
            1682             348     120.909E-03     130.189E-03
            1612             348     120.909E-03     130.189E-03
            1611             348     120.909E-03     130.189E-03
            1611             349     143.110E-03     152.378E-03
            1682             349     143.110E-03     152.378E-03
            1610             349     143.110E-03     152.378E-03
            1681             349     143.110E-03     152.378E-03
            1609             350     165.317E-03     174.624E-03
            1680             350     165.317E-03     174.624E-03
            1681             350     165.317E-03     174.624E-03
            1610             350     165.317E-03     174.624E-03
            1679             351     187.564E-03     196.808E-03
            1680             351     187.564E-03     196.808E-03
            1608             351     187.564E-03     196.808E-03
            1609             351     187.564E-03     196.808E-03
            1678             352     209.700E-03     218.921E-03
            1608             352     209.700E-03     218.921E-03
            1679             352     209.700E-03     218.921E-03
            1607             352     209.700E-03     218.921E-03
            1678             353     231.971E-03     240.897E-03
            1606             353     231.971E-03     240.897E-03
            1607             353     231.971E-03     240.897E-03
            1677             353     231.971E-03     240.897E-03
            1676             354     254.248E-03     262.859E-03
            1606             354     254.248E-03     262.859E-03
            1605             354     254.248E-03     262.859E-03
            1677             354     254.248E-03     262.859E-03
            1676             355     277.557E-03     285.431E-03
            1675             355     277.557E-03     285.431E-03
            1605             355     277.557E-03     285.431E-03
            1604             355     277.557E-03     285.431E-03
            1675             356     301.910E-03     309.621E-03
            1603             356     301.910E-03     309.621E-03
            1604             356     301.910E-03     309.621E-03
            1674             356     301.910E-03     309.621E-03
            1674             357     334.305E-03     345.072E-03
            1602             357     334.305E-03     345.072E-03
            1673             357     334.305E-03     345.072E-03
            1603             357     334.305E-03     345.072E-03
            2656             374     60.1673E-03     74.7374E-03
            2655             374     60.1673E-03     74.7374E-03
            1752             374     60.1673E-03     74.7374E-03
            1751             374     60.1673E-03     74.7374E-03
            1751             375     73.8638E-03     91.3282E-03
            1750             375     73.8638E-03     91.3282E-03
            2654             375     73.8638E-03     91.3282E-03
            2655             375     73.8638E-03     91.3282E-03
            1750             376     91.6612E-03     109.914E-03
            1749             376     91.6612E-03     109.914E-03
            2654             376     91.6612E-03     109.914E-03
            2653             376     91.6612E-03     109.914E-03
            2653             377     111.393E-03     130.507E-03
            1749             377     111.393E-03     130.507E-03
            1748             377     111.393E-03     130.507E-03
            2652             377     111.393E-03     130.507E-03
            2651             378     131.920E-03     151.715E-03
            2652             378     131.920E-03     151.715E-03
            1747             378     131.920E-03     151.715E-03
            1748             378     131.920E-03     151.715E-03
            1747             379     153.197E-03     173.755E-03
            2650             379     153.197E-03     173.755E-03
            2651             379     153.197E-03     173.755E-03
            1746             379     153.197E-03     173.755E-03
            1746             380     174.952E-03     196.152E-03
            2650             380     174.952E-03     196.152E-03
            1745             380     174.952E-03     196.152E-03
            2649             380     174.952E-03     196.152E-03
            1745             381     196.883E-03     218.939E-03
            2648             381     196.883E-03     218.939E-03
            1744             381     196.883E-03     218.939E-03
            2649             381     196.883E-03     218.939E-03
            1744             382     219.122E-03     241.700E-03
            2648             382     219.122E-03     241.700E-03
            1743             382     219.122E-03     241.700E-03
            2647             382     219.122E-03     241.700E-03
            2646             383     241.034E-03     264.626E-03
            2647             383     241.034E-03     264.626E-03
            1743             383     241.034E-03     264.626E-03
            1742             383     241.034E-03     264.626E-03
            1741             384     263.196E-03     287.070E-03
            2645             384     263.196E-03     287.070E-03
            1742             384     263.196E-03     287.070E-03
            2646             384     263.196E-03     287.070E-03
            1740             385     284.399E-03     309.340E-03
            2645             385     284.399E-03     309.340E-03
            1741             385     284.399E-03     309.340E-03
            2644             385     284.399E-03     309.340E-03
            1740             386     306.685E-03     331.453E-03
            2643             386     306.685E-03     331.453E-03
            1739             386     306.685E-03     331.453E-03
            2644             386     306.685E-03     331.453E-03
            1739             387     326.082E-03     351.577E-03
            2643             387     326.082E-03     351.577E-03
            1738             387     326.082E-03     351.577E-03
            2642             387     326.082E-03     351.577E-03
            2642             388     361.486E-03     391.059E-03
            1737             388     361.486E-03     391.059E-03
            2641             388     361.486E-03     391.059E-03
            1738             388     361.486E-03     391.059E-03
            1737             389     406.792E-03     416.615E-03
            1721             389     406.792E-03     416.615E-03
            1705             390     406.059E-03     406.833E-03
            1721             390     406.059E-03     406.833E-03
            1689             391     388.738E-03     390.404E-03
            1705             391     388.738E-03     390.404E-03
            1673             392     363.463E-03     365.114E-03
            1689             392     363.463E-03     365.114E-03
            2704             412     49.1021E-03     50.6180E-03
            2720             412     49.1021E-03     50.6180E-03
            2688             413     35.0147E-03     44.0803E-03
            2704             413     35.0147E-03     44.0803E-03
            2672             414     37.3135E-03     39.5407E-03
            2688             414     37.3135E-03     39.5407E-03
            2672             415     40.2699E-03     46.0702E-03
            2656             415     40.2699E-03     46.0702E-03
            2657             420     363.153E-03     368.798E-03
            2641             420     363.153E-03     368.798E-03
            2657             421     346.098E-03     351.224E-03
            2673             421     346.098E-03     351.224E-03
            2689             422     332.480E-03     345.534E-03
            2673             422     332.480E-03     345.534E-03
            2705             423     288.694E-03     277.835E-03
            2689             423     288.694E-03     277.835E-03
            2369             444     252.293E-03     265.698E-03
            2385             444     252.293E-03     265.698E-03
            2385             445     212.826E-03     199.973E-03
            2401             445     212.826E-03     199.973E-03
            2401             446     201.835E-03     210.930E-03
            2417             446     201.835E-03     210.930E-03
            2433             447     210.007E-03     219.821E-03
            2417             447     210.007E-03     219.821E-03
            2433             448     180.629E-03     178.397E-03
            2449             448     180.629E-03     178.397E-03
            2449             449     145.476E-03     149.355E-03
            2465             449     145.476E-03     149.355E-03
            2481             450     117.848E-03     114.768E-03
            2465             450     117.848E-03     114.768E-03
            2481             451     87.3297E-03     84.8575E-03
            2497             451     87.3297E-03     84.8575E-03
            2513             452     60.1881E-03     65.8576E-03
            2497             452     60.1881E-03     65.8576E-03
            2513             453     30.9533E-03     37.3627E-03
            2529             453     30.9533E-03     37.3627E-03
            2370             507     254.200E-03     263.688E-03
            2705             507     254.200E-03     263.688E-03
            2369             507     254.200E-03     263.688E-03
            2706             507     254.200E-03     263.688E-03
            2707             508     241.100E-03     246.968E-03
            2706             508     241.100E-03     246.968E-03
            2370             508     241.100E-03     246.968E-03
            2371             508     241.100E-03     246.968E-03
            2707             509     227.597E-03     233.209E-03
            2708             509     227.597E-03     233.209E-03
            2372             509     227.597E-03     233.209E-03
            2371             509     227.597E-03     233.209E-03
            2372             510     210.914E-03     217.082E-03
            2708             510     210.914E-03     217.082E-03
            2373             510     210.914E-03     217.082E-03
            2709             510     210.914E-03     217.082E-03
            2374             511     194.736E-03     200.965E-03
            2710             511     194.736E-03     200.965E-03
            2373             511     194.736E-03     200.965E-03
            2709             511     194.736E-03     200.965E-03
            2710             512     178.209E-03     184.437E-03
            2374             512     178.209E-03     184.437E-03
            2375             512     178.209E-03     184.437E-03
            2711             512     178.209E-03     184.437E-03
            2375             513     161.747E-03     167.999E-03
            2376             513     161.747E-03     167.999E-03
            2712             513     161.747E-03     167.999E-03
            2711             513     161.747E-03     167.999E-03
            2712             514     145.242E-03     151.511E-03
            2376             514     145.242E-03     151.511E-03
            2377             514     145.242E-03     151.511E-03
            2713             514     145.242E-03     151.511E-03
            2713             515     128.862E-03     135.154E-03
            2378             515     128.862E-03     135.154E-03
            2714             515     128.862E-03     135.154E-03
            2377             515     128.862E-03     135.154E-03
            2379             516     112.640E-03     118.940E-03
            2714             516     112.640E-03     118.940E-03
            2715             516     112.640E-03     118.940E-03
            2378             516     112.640E-03     118.940E-03
            2380             517     96.7243E-03     103.007E-03
            2715             517     96.7243E-03     103.007E-03
            2716             517     96.7243E-03     103.007E-03
            2379             517     96.7243E-03     103.007E-03
            2717             518     81.2527E-03     87.4931E-03
            2716             518     81.2527E-03     87.4931E-03
            2380             518     81.2527E-03     87.4931E-03
            2381             518     81.2527E-03     87.4931E-03
            2382             519     66.5491E-03     72.8879E-03
            2717             519     66.5491E-03     72.8879E-03
            2718             519     66.5491E-03     72.8879E-03
            2381             519     66.5491E-03     72.8879E-03
            2382             520     53.9936E-03     60.1576E-03
            2718             520     53.9936E-03     60.1576E-03
            2719             520     53.9936E-03     60.1576E-03
            2383             520     53.9936E-03     60.1576E-03
            2719             521     43.4600E-03     49.0377E-03
            2720             521     43.4600E-03     49.0377E-03
            2384             521     43.4600E-03     49.0377E-03
            2383             521     43.4600E-03     49.0377E-03
            2384             522     36.0934E-03     42.4645E-03
            2400             522     36.0934E-03     42.4645E-03
            2416             523     46.9362E-03     46.7358E-03
            2400             523     46.9362E-03     46.7358E-03
            2432             524     36.9373E-03     42.9807E-03
            2416             524     36.9373E-03     42.9807E-03
            2448             525     33.9996E-03     40.1060E-03
            2432             525     33.9996E-03     40.1060E-03
            2464             526     43.8624E-03     38.7308E-03
            2448             526     43.8624E-03     38.7308E-03
            2464             527     47.5672E-03     42.5198E-03
            2480             527     47.5672E-03     42.5198E-03
            2496             528     51.5806E-03     45.7519E-03
            2480             528     51.5806E-03     45.7519E-03
            2496             529     55.6638E-03     51.8382E-03
            2512             529     55.6638E-03     51.8382E-03
            2528             530     53.8134E-03     61.6422E-03
            2512             530     53.8134E-03     61.6422E-03
            2544             531     29.1331E-03     35.9124E-03
            2528             531     29.1331E-03     35.9124E-03
            2929             532     3.89393E-03     4.15340E-03
            2930             532     3.89393E-03     4.15340E-03
            2543             532     3.89393E-03     4.15340E-03
            2544             532     3.89393E-03     4.15340E-03
            2543             533     3.95940E-03     4.21580E-03
            2542             533     3.95940E-03     4.21580E-03
            2928             533     3.95940E-03     4.21580E-03
            2929             533     3.95940E-03     4.21580E-03
            2542             534     4.05104E-03     4.31201E-03
            2928             534     4.05104E-03     4.31201E-03
            2541             534     4.05104E-03     4.31201E-03
            2927             534     4.05104E-03     4.31201E-03
            2541             535     4.17216E-03     4.43693E-03
            2927             535     4.17216E-03     4.43693E-03
            2926             535     4.17216E-03     4.43693E-03
            2540             535     4.17216E-03     4.43693E-03
            2926             536     4.32056E-03     4.58725E-03
            2539             536     4.32056E-03     4.58725E-03
            2925             536     4.32056E-03     4.58725E-03
            2540             536     4.32056E-03     4.58725E-03
            2538             537     4.49353E-03     4.76086E-03
            2925             537     4.49353E-03     4.76086E-03
            2924             537     4.49353E-03     4.76086E-03
            2539             537     4.49353E-03     4.76086E-03
            2924             538     4.68871E-03     4.95492E-03
            2538             538     4.68871E-03     4.95492E-03
            2923             538     4.68871E-03     4.95492E-03
            2537             538     4.68871E-03     4.95492E-03
            2536             539     4.90338E-03     5.16756E-03
            2923             539     4.90338E-03     5.16756E-03
            2922             539     4.90338E-03     5.16756E-03
            2537             539     4.90338E-03     5.16756E-03
            2536             540     5.13467E-03     5.39611E-03
            2535             540     5.13467E-03     5.39611E-03
            2922             540     5.13467E-03     5.39611E-03
            2921             540     5.13467E-03     5.39611E-03
            2921             541     5.38088E-03     5.63880E-03
            2920             541     5.38088E-03     5.63880E-03
            2534             541     5.38088E-03     5.63880E-03
            2535             541     5.38088E-03     5.63880E-03
            2534             542     5.63864E-03     5.89330E-03
            2533             542     5.63864E-03     5.89330E-03
            2920             542     5.63864E-03     5.89330E-03
            2919             542     5.63864E-03     5.89330E-03
            2532             543     5.90790E-03     6.15873E-03
            2533             543     5.90790E-03     6.15873E-03
            2919             543     5.90790E-03     6.15873E-03
            2918             543     5.90790E-03     6.15873E-03
            2531             544     6.18828E-03     6.43623E-03
            2532             544     6.18828E-03     6.43623E-03
            2918             544     6.18828E-03     6.43623E-03
            2917             544     6.18828E-03     6.43623E-03
            2530             545     6.48629E-03     6.73307E-03
            2531             545     6.48629E-03     6.73307E-03
            2917             545     6.48629E-03     6.73307E-03
            2916             545     6.48629E-03     6.73307E-03
            2530             546     6.83829E-03     7.09213E-03
            2916             546     6.83829E-03     7.09213E-03
            2915             546     6.83829E-03     7.09213E-03
            2529             546     6.83829E-03     7.09213E-03
            3010             582     250.542E-06     273.769E-06
            2994             582     250.542E-06     273.769E-06
            2978             583     264.202E-06     241.928E-06
            2994             583     264.202E-06     241.928E-06
            2978             584     253.983E-06     220.988E-06
            2962             584     253.983E-06     220.988E-06
            2946             585     246.029E-06     221.757E-06
            2962             585     246.029E-06     221.757E-06
            2930             586     217.022E-06     232.095E-06
            2946             586     217.022E-06     232.095E-06
            2979             596     67.0317E-06     114.656E-06
            2995             596     67.0317E-06     114.656E-06
            2979             597     134.296E-06     125.806E-06
            2963             597     134.296E-06     125.806E-06
            2947             598     246.838E-06     250.185E-06
            2963             598     246.838E-06     250.185E-06
            2947             599     372.755E-06     370.147E-06
            2931             599     372.755E-06     370.147E-06
            2915             600     492.085E-06     517.720E-06
            2931             600     492.085E-06     517.720E-06
            3009             616     246.809E-06     276.605E-06
            3010             616     246.809E-06     276.605E-06
            3008             617     266.028E-06     263.675E-06
            3009             617     266.028E-06     263.675E-06
            3007             618     271.934E-06     261.127E-06
            3008             618     271.934E-06     261.127E-06
            3006             619     277.152E-06     262.155E-06
            3007             619     277.152E-06     262.155E-06
            3006             620     282.187E-06     263.295E-06
            3005             620     282.187E-06     263.295E-06
            3005             621     287.154E-06     265.781E-06
            3004             621     287.154E-06     265.781E-06
            3003             622     292.186E-06     267.981E-06
            3004             622     292.186E-06     267.981E-06
            3002             623     297.490E-06     271.037E-06
            3003             623     297.490E-06     271.037E-06
            3002             624     301.341E-06     273.019E-06
            3001             624     301.341E-06     273.019E-06
            3001             625     304.798E-06     274.023E-06
            3000             625     304.798E-06     274.023E-06
            3000             626     302.251E-06     270.661E-06
            2999             626     302.251E-06     270.661E-06
            2998             627     293.660E-06     258.593E-06
            2999             627     293.660E-06     258.593E-06
            2997             628     265.126E-06     228.339E-06
            2998             628     265.126E-06     228.339E-06
            2996             629     215.924E-06     172.867E-06
            2997             629     215.924E-06     172.867E-06
            2995             630     131.776E-06     147.249E-06
            2996             630     131.776E-06     147.249E-06
             545            1130     215.865E-06     233.327E-06
             562            1130     215.865E-06     233.327E-06
             561            1130     215.865E-06     233.327E-06
             546            1130     215.865E-06     233.327E-06
             546            1131     216.670E-06     233.758E-06
             562            1131     216.670E-06     233.758E-06
             563            1131     216.670E-06     233.758E-06
             547            1131     216.670E-06     233.758E-06
             547            1132     219.816E-06     235.552E-06
             563            1132     219.816E-06     235.552E-06
             564            1132     219.816E-06     235.552E-06
             548            1132     219.816E-06     235.552E-06
             565            1133     221.836E-06     241.759E-06
             549            1133     221.836E-06     241.759E-06
             564            1133     221.836E-06     241.759E-06
             548            1133     221.836E-06     241.759E-06
             565            1134     224.624E-06     248.346E-06
             566            1134     224.624E-06     248.346E-06
             549            1134     224.624E-06     248.346E-06
             550            1134     224.624E-06     248.346E-06
             550            1135     229.065E-06     255.507E-06
             566            1135     229.065E-06     255.507E-06
             567            1135     229.065E-06     255.507E-06
             551            1135     229.065E-06     255.507E-06
             567            1136     234.622E-06     263.469E-06
             568            1136     234.622E-06     263.469E-06
             552            1136     234.622E-06     263.469E-06
             551            1136     234.622E-06     263.469E-06
             552            1137     241.572E-06     272.130E-06
             569            1137     241.572E-06     272.130E-06
             568            1137     241.572E-06     272.130E-06
             553            1137     241.572E-06     272.130E-06
             554            1138     249.260E-06     281.186E-06
             569            1138     249.260E-06     281.186E-06
             570            1138     249.260E-06     281.186E-06
             553            1138     249.260E-06     281.186E-06
             555            1139     257.770E-06     290.761E-06
             554            1139     257.770E-06     290.761E-06
             570            1139     257.770E-06     290.761E-06
             571            1139     257.770E-06     290.761E-06
             571            1140     266.060E-06     299.963E-06
             556            1140     266.060E-06     299.963E-06
             572            1140     266.060E-06     299.963E-06
             555            1140     266.060E-06     299.963E-06
             556            1141     274.743E-06     310.140E-06
             557            1141     274.743E-06     310.140E-06
             572            1141     274.743E-06     310.140E-06
             573            1141     274.743E-06     310.140E-06
             557            1142     285.300E-06     321.929E-06
             573            1142     285.300E-06     321.929E-06
             558            1142     285.300E-06     321.929E-06
             574            1142     285.300E-06     321.929E-06
             559            1143     320.127E-06     356.861E-06
             558            1143     320.127E-06     356.861E-06
             575            1143     320.127E-06     356.861E-06
             574            1143     320.127E-06     356.861E-06
             576            1144     422.255E-06     453.363E-06
             575            1144     422.255E-06     453.363E-06
             560            1144     422.255E-06     453.363E-06
             559            1144     422.255E-06     453.363E-06
             561            1145     239.791E-06     227.685E-06
             562            1145     239.791E-06     227.685E-06
             577            1145     239.791E-06     227.685E-06
             578            1145     239.791E-06     227.685E-06
             563            1146     231.771E-06     236.611E-06
             578            1146     231.771E-06     236.611E-06
             579            1146     231.771E-06     236.611E-06
             562            1146     231.771E-06     236.611E-06
             564            1147     230.908E-06     241.679E-06
             580            1147     230.908E-06     241.679E-06
             579            1147     230.908E-06     241.679E-06
             563            1147     230.908E-06     241.679E-06
             581            1148     232.625E-06     246.119E-06
             564            1148     232.625E-06     246.119E-06
             580            1148     232.625E-06     246.119E-06
             565            1148     232.625E-06     246.119E-06
             566            1149     235.952E-06     251.422E-06
             565            1149     235.952E-06     251.422E-06
             581            1149     235.952E-06     251.422E-06
             582            1149     235.952E-06     251.422E-06
             567            1150     240.849E-06     257.523E-06
             566            1150     240.849E-06     257.523E-06
             583            1150     240.849E-06     257.523E-06
             582            1150     240.849E-06     257.523E-06
             568            1151     246.911E-06     264.874E-06
             567            1151     246.911E-06     264.874E-06
             583            1151     246.911E-06     264.874E-06
             584            1151     246.911E-06     264.874E-06
             584            1152     254.165E-06     273.077E-06
             568            1152     254.165E-06     273.077E-06
             585            1152     254.165E-06     273.077E-06
             569            1152     254.165E-06     273.077E-06
             570            1153     262.967E-06     282.472E-06
             586            1153     262.967E-06     282.472E-06
             569            1153     262.967E-06     282.472E-06
             585            1153     262.967E-06     282.472E-06
             571            1154     272.525E-06     292.882E-06
             586            1154     272.525E-06     292.882E-06
             587            1154     272.525E-06     292.882E-06
             570            1154     272.525E-06     292.882E-06
             588            1155     283.925E-06     304.308E-06
             571            1155     283.925E-06     304.308E-06
             587            1155     283.925E-06     304.308E-06
             572            1155     283.925E-06     304.308E-06
             572            1156     294.049E-06     316.042E-06
             589            1156     294.049E-06     316.042E-06
             588            1156     294.049E-06     316.042E-06
             573            1156     294.049E-06     316.042E-06
             590            1157     302.794E-06     325.393E-06
             574            1157     302.794E-06     325.393E-06
             573            1157     302.794E-06     325.393E-06
             589            1157     302.794E-06     325.393E-06
             574            1158     320.496E-06     338.173E-06
             591            1158     320.496E-06     338.173E-06
             575            1158     320.496E-06     338.173E-06
             590            1158     320.496E-06     338.173E-06
             591            1159     353.825E-06     359.770E-06
             592            1159     353.825E-06     359.770E-06
             575            1159     353.825E-06     359.770E-06
             576            1159     353.825E-06     359.770E-06
             578            1160     253.281E-06     227.150E-06
             577            1160     253.281E-06     227.150E-06
             593            1160     253.281E-06     227.150E-06
             594            1160     253.281E-06     227.150E-06
             594            1161     247.601E-06     239.922E-06
             578            1161     247.601E-06     239.922E-06
             595            1161     247.601E-06     239.922E-06
             579            1161     247.601E-06     239.922E-06
             596            1162     242.116E-06     248.212E-06
             579            1162     242.116E-06     248.212E-06
             580            1162     242.116E-06     248.212E-06
             595            1162     242.116E-06     248.212E-06
             581            1163     244.001E-06     250.752E-06
             597            1163     244.001E-06     250.752E-06
             596            1163     244.001E-06     250.752E-06
             580            1163     244.001E-06     250.752E-06
             582            1164     248.252E-06     254.405E-06
             597            1164     248.252E-06     254.405E-06
             598            1164     248.252E-06     254.405E-06
             581            1164     248.252E-06     254.405E-06
             583            1165     253.173E-06     259.674E-06
             582            1165     253.173E-06     259.674E-06
             599            1165     253.173E-06     259.674E-06
             598            1165     253.173E-06     259.674E-06
             600            1166     259.378E-06     265.766E-06
             584            1166     259.378E-06     265.766E-06
             599            1166     259.378E-06     265.766E-06
             583            1166     259.378E-06     265.766E-06
             600            1167     266.763E-06     273.279E-06
             585            1167     266.763E-06     273.279E-06
             601            1167     266.763E-06     273.279E-06
             584            1167     266.763E-06     273.279E-06
             585            1168     275.327E-06     282.035E-06
             601            1168     275.327E-06     282.035E-06
             602            1168     275.327E-06     282.035E-06
             586            1168     275.327E-06     282.035E-06
             586            1169     285.931E-06     292.324E-06
             603            1169     285.931E-06     292.324E-06
             602            1169     285.931E-06     292.324E-06
             587            1169     285.931E-06     292.324E-06
             588            1170     296.954E-06     304.060E-06
             603            1170     296.954E-06     304.060E-06
             604            1170     296.954E-06     304.060E-06
             587            1170     296.954E-06     304.060E-06
             589            1171     308.226E-06     314.578E-06
             605            1171     308.226E-06     314.578E-06
             604            1171     308.226E-06     314.578E-06
             588            1171     308.226E-06     314.578E-06
             605            1172     310.683E-06     319.939E-06
             606            1172     310.683E-06     319.939E-06
             590            1172     310.683E-06     319.939E-06
             589            1172     310.683E-06     319.939E-06
             590            1173     281.062E-06     296.730E-06
             606            1173     281.062E-06     296.730E-06
             591            1173     281.062E-06     296.730E-06
             607            1173     281.062E-06     296.730E-06
             592            1174     252.186E-06     262.398E-06
             608            1174     252.186E-06     262.398E-06
             607            1174     252.186E-06     262.398E-06
             591            1174     252.186E-06     262.398E-06
             610            1175     258.091E-06     247.699E-06
             594            1175     258.091E-06     247.699E-06
             609            1175     258.091E-06     247.699E-06
             593            1175     258.091E-06     247.699E-06
             594            1176     251.457E-06     253.159E-06
             611            1176     251.457E-06     253.159E-06
             595            1176     251.457E-06     253.159E-06
             610            1176     251.457E-06     253.159E-06
             596            1177     253.355E-06     253.400E-06
             595            1177     253.355E-06     253.400E-06
             611            1177     253.355E-06     253.400E-06
             612            1177     253.355E-06     253.400E-06
             613            1178     256.947E-06     255.042E-06
             596            1178     256.947E-06     255.042E-06
             612            1178     256.947E-06     255.042E-06
             597            1178     256.947E-06     255.042E-06
             597            1179     261.176E-06     257.981E-06
             613            1179     261.176E-06     257.981E-06
             614            1179     261.176E-06     257.981E-06
             598            1179     261.176E-06     257.981E-06
             615            1180     266.400E-06     261.736E-06
             614            1180     266.400E-06     261.736E-06
             599            1180     266.400E-06     261.736E-06
             598            1180     266.400E-06     261.736E-06
             616            1181     272.232E-06     266.718E-06
             615            1181     272.232E-06     266.718E-06
             600            1181     272.232E-06     266.718E-06
             599            1181     272.232E-06     266.718E-06
             616            1182     278.907E-06     272.472E-06
             601            1182     278.907E-06     272.472E-06
             617            1182     278.907E-06     272.472E-06
             600            1182     278.907E-06     272.472E-06
             601            1183     286.515E-06     279.333E-06
             602            1183     286.515E-06     279.333E-06
             618            1183     286.515E-06     279.333E-06
             617            1183     286.515E-06     279.333E-06
             602            1184     294.868E-06     287.071E-06
             603            1184     294.868E-06     287.071E-06
             619            1184     294.868E-06     287.071E-06
             618            1184     294.868E-06     287.071E-06
             604            1185     303.533E-06     294.926E-06
             619            1185     303.533E-06     294.926E-06
             620            1185     303.533E-06     294.926E-06
             603            1185     303.533E-06     294.926E-06
             621            1186     309.259E-06     300.277E-06
             605            1186     309.259E-06     300.277E-06
             620            1186     309.259E-06     300.277E-06
             604            1186     309.259E-06     300.277E-06
             606            1187     302.281E-06     294.255E-06
             622            1187     302.281E-06     294.255E-06
             621            1187     302.281E-06     294.255E-06
             605            1187     302.281E-06     294.255E-06
             607            1188     249.824E-06     251.290E-06
             606            1188     249.824E-06     251.290E-06
             622            1188     249.824E-06     251.290E-06
             623            1188     249.824E-06     251.290E-06
             607            1189     170.671E-06     171.489E-06
             623            1189     170.671E-06     171.489E-06
             608            1189     170.671E-06     171.489E-06
             624            1189     170.671E-06     171.489E-06
             625            1190     252.702E-06     270.564E-06
             626            1190     252.702E-06     270.564E-06
             610            1190     252.702E-06     270.564E-06
             609            1190     252.702E-06     270.564E-06
             611            1191     258.556E-06     262.813E-06
             626            1191     258.556E-06     262.813E-06
             627            1191     258.556E-06     262.813E-06
             610            1191     258.556E-06     262.813E-06
             611            1192     265.724E-06     258.740E-06
             627            1192     265.724E-06     258.740E-06
             628            1192     265.724E-06     258.740E-06
             612            1192     265.724E-06     258.740E-06
             628            1193     270.749E-06     259.861E-06
             629            1193     270.749E-06     259.861E-06
             613            1193     270.749E-06     259.861E-06
             612            1193     270.749E-06     259.861E-06
             613            1194     275.279E-06     261.925E-06
             629            1194     275.279E-06     261.925E-06
             630            1194     275.279E-06     261.925E-06
             614            1194     275.279E-06     261.925E-06
             614            1195     280.461E-06     264.572E-06
             615            1195     280.461E-06     264.572E-06
             630            1195     280.461E-06     264.572E-06
             631            1195     280.461E-06     264.572E-06
             632            1196     285.822E-06     267.958E-06
             616            1196     285.822E-06     267.958E-06
             615            1196     285.822E-06     267.958E-06
             631            1196     285.822E-06     267.958E-06
             633            1197     291.426E-06     271.746E-06
             616            1197     291.426E-06     271.746E-06
             617            1197     291.426E-06     271.746E-06
             632            1197     291.426E-06     271.746E-06
             633            1198     296.993E-06     275.578E-06
             618            1198     296.993E-06     275.578E-06
             617            1198     296.993E-06     275.578E-06
             634            1198     296.993E-06     275.578E-06
             618            1199     301.551E-06     278.889E-06
             634            1199     301.551E-06     278.889E-06
             619            1199     301.551E-06     278.889E-06
             635            1199     301.551E-06     278.889E-06
             619            1200     304.160E-06     279.557E-06
             620            1200     304.160E-06     279.557E-06
             636            1200     304.160E-06     279.557E-06
             635            1200     304.160E-06     279.557E-06
             637            1201     299.585E-06     274.146E-06
             621            1201     299.585E-06     274.146E-06
             620            1201     299.585E-06     274.146E-06
             636            1201     299.585E-06     274.146E-06
             638            1202     279.742E-06     252.154E-06
             637            1202     279.742E-06     252.154E-06
             622            1202     279.742E-06     252.154E-06
             621            1202     279.742E-06     252.154E-06
             639            1203     230.402E-06     200.695E-06
             622            1203     230.402E-06     200.695E-06
             638            1203     230.402E-06     200.695E-06
             623            1203     230.402E-06     200.695E-06
             624            1204     131.732E-06     140.974E-06
             623            1204     131.732E-06     140.974E-06
             639            1204     131.732E-06     140.974E-06
             640            1204     131.732E-06     140.974E-06
            1090            1511     13.3569E-03     12.6258E-03
            1091            1511     13.3569E-03     12.6258E-03
            1075            1511     13.3569E-03     12.6258E-03
            1074            1511     13.3569E-03     12.6258E-03
            1092            1512     18.4503E-03     14.7942E-03
            1091            1512     18.4503E-03     14.7942E-03
            1075            1512     18.4503E-03     14.7942E-03
            1076            1512     18.4503E-03     14.7942E-03
            1076            1513     21.2886E-03     18.2846E-03
            1092            1513     21.2886E-03     18.2846E-03
            1093            1513     21.2886E-03     18.2846E-03
            1077            1513     21.2886E-03     18.2846E-03
            1078            1514     22.7226E-03     20.0765E-03
            1094            1514     22.7226E-03     20.0765E-03
            1077            1514     22.7226E-03     20.0765E-03
            1093            1514     22.7226E-03     20.0765E-03
            1078            1515     22.8555E-03     20.4874E-03
            1094            1515     22.8555E-03     20.4874E-03
            1095            1515     22.8555E-03     20.4874E-03
            1079            1515     22.8555E-03     20.4874E-03
            1080            1516     22.4833E-03     20.3125E-03
            1096            1516     22.4833E-03     20.3125E-03
            1095            1516     22.4833E-03     20.3125E-03
            1079            1516     22.4833E-03     20.3125E-03
            1096            1517     21.7219E-03     19.7326E-03
            1081            1517     21.7219E-03     19.7326E-03
            1097            1517     21.7219E-03     19.7326E-03
            1080            1517     21.7219E-03     19.7326E-03
            1098            1518     20.8110E-03     18.9911E-03
            1082            1518     20.8110E-03     18.9911E-03
            1081            1518     20.8110E-03     18.9911E-03
            1097            1518     20.8110E-03     18.9911E-03
            1098            1519     19.8345E-03     18.2020E-03
            1099            1519     19.8345E-03     18.2020E-03
            1083            1519     19.8345E-03     18.2020E-03
            1082            1519     19.8345E-03     18.2020E-03
            1084            1520     18.8573E-03     17.4114E-03
            1083            1520     18.8573E-03     17.4114E-03
            1099            1520     18.8573E-03     17.4114E-03
            1100            1520     18.8573E-03     17.4114E-03
            1084            1521     17.9070E-03     16.6681E-03
            1085            1521     17.9070E-03     16.6681E-03
            1101            1521     17.9070E-03     16.6681E-03
            1100            1521     17.9070E-03     16.6681E-03
            1101            1522     17.0179E-03     16.0271E-03
            1086            1522     17.0179E-03     16.0271E-03
            1102            1522     17.0179E-03     16.0271E-03
            1085            1522     17.0179E-03     16.0271E-03
            1086            1523     16.1544E-03     15.4142E-03
            1103            1523     16.1544E-03     15.4142E-03
            1087            1523     16.1544E-03     15.4142E-03
            1102            1523     16.1544E-03     15.4142E-03
            1087            1524     15.3473E-03     15.1164E-03
            1104            1524     15.3473E-03     15.1164E-03
            1103            1524     15.3473E-03     15.1164E-03
            1088            1524     15.3473E-03     15.1164E-03
            1089            1525     14.0197E-03     15.1399E-03
            1105            1525     14.0197E-03     15.1399E-03
            1104            1525     14.0197E-03     15.1399E-03
            1088            1525     14.0197E-03     15.1399E-03
            1091            1526     24.6795E-03     23.7549E-03
            1107            1526     24.6795E-03     23.7549E-03
            1106            1526     24.6795E-03     23.7549E-03
            1090            1526     24.6795E-03     23.7549E-03
            1091            1527     34.1598E-03     29.3660E-03
            1092            1527     34.1598E-03     29.3660E-03
            1108            1527     34.1598E-03     29.3660E-03
            1107            1527     34.1598E-03     29.3660E-03
            1092            1528     40.8841E-03     36.2397E-03
            1108            1528     40.8841E-03     36.2397E-03
            1109            1528     40.8841E-03     36.2397E-03
            1093            1528     40.8841E-03     36.2397E-03
            1110            1529     42.9564E-03     38.7747E-03
            1093            1529     42.9564E-03     38.7747E-03
            1109            1529     42.9564E-03     38.7747E-03
            1094            1529     42.9564E-03     38.7747E-03
            1110            1530     42.9576E-03     39.1183E-03
            1111            1530     42.9576E-03     39.1183E-03
            1095            1530     42.9576E-03     39.1183E-03
            1094            1530     42.9576E-03     39.1183E-03
            1111            1531     41.8319E-03     38.2677E-03
            1112            1531     41.8319E-03     38.2677E-03
            1095            1531     41.8319E-03     38.2677E-03
            1096            1531     41.8319E-03     38.2677E-03
            1096            1532     40.1860E-03     36.9303E-03
            1097            1532     40.1860E-03     36.9303E-03
            1113            1532     40.1860E-03     36.9303E-03
            1112            1532     40.1860E-03     36.9303E-03
            1097            1533     38.3776E-03     35.3898E-03
            1114            1533     38.3776E-03     35.3898E-03
            1098            1533     38.3776E-03     35.3898E-03
            1113            1533     38.3776E-03     35.3898E-03
            1114            1534     36.5227E-03     33.8414E-03
            1098            1534     36.5227E-03     33.8414E-03
            1099            1534     36.5227E-03     33.8414E-03
            1115            1534     36.5227E-03     33.8414E-03
            1116            1535     34.7420E-03     32.3824E-03
            1115            1535     34.7420E-03     32.3824E-03
            1099            1535     34.7420E-03     32.3824E-03
            1100            1535     34.7420E-03     32.3824E-03
            1116            1536     33.0423E-03     31.0504E-03
            1117            1536     33.0423E-03     31.0504E-03
            1100            1536     33.0423E-03     31.0504E-03
            1101            1536     33.0423E-03     31.0504E-03
            1117            1537     31.4747E-03     29.9304E-03
            1101            1537     31.4747E-03     29.9304E-03
            1118            1537     31.4747E-03     29.9304E-03
            1102            1537     31.4747E-03     29.9304E-03
            1119            1538     29.9342E-03     29.0136E-03
            1102            1538     29.9342E-03     29.0136E-03
            1118            1538     29.9342E-03     29.0136E-03
            1103            1538     29.9342E-03     29.0136E-03
            1103            1539     28.3227E-03     28.6544E-03
            1120            1539     28.3227E-03     28.6544E-03
            1104            1539     28.3227E-03     28.6544E-03
            1119            1539     28.3227E-03     28.6544E-03
            1105            1540     26.4821E-03     28.4317E-03
            1121            1540     26.4821E-03     28.4317E-03
            1120            1540     26.4821E-03     28.4317E-03
            1104            1540     26.4821E-03     28.4317E-03
            1123            1541     33.2394E-03     33.0550E-03
            1122            1541     33.2394E-03     33.0550E-03
            1107            1541     33.2394E-03     33.0550E-03
            1106            1541     33.2394E-03     33.0550E-03
            1108            1542     38.2093E-03     37.5023E-03
            1123            1542     38.2093E-03     37.5023E-03
            1107            1542     38.2093E-03     37.5023E-03
            1124            1542     38.2093E-03     37.5023E-03
            1109            1543     44.4297E-03     42.7129E-03
            1124            1543     44.4297E-03     42.7129E-03
            1125            1543     44.4297E-03     42.7129E-03
            1108            1543     44.4297E-03     42.7129E-03
            1125            1544     45.2878E-03     43.3262E-03
            1110            1544     45.2878E-03     43.3262E-03
            1126            1544     45.2878E-03     43.3262E-03
            1109            1544     45.2878E-03     43.3262E-03
            1111            1545     44.0459E-03     42.0468E-03
            1126            1545     44.0459E-03     42.0468E-03
            1127            1545     44.0459E-03     42.0468E-03
            1110            1545     44.0459E-03     42.0468E-03
            1112            1546     41.8190E-03     39.9452E-03
            1128            1546     41.8190E-03     39.9452E-03
            1111            1546     41.8190E-03     39.9452E-03
            1127            1546     41.8190E-03     39.9452E-03
            1129            1547     39.4726E-03     37.7130E-03
            1112            1547     39.4726E-03     37.7130E-03
            1113            1547     39.4726E-03     37.7130E-03
            1128            1547     39.4726E-03     37.7130E-03
            1130            1548     37.1397E-03     35.5165E-03
            1113            1548     37.1397E-03     35.5165E-03
            1129            1548     37.1397E-03     35.5165E-03
            1114            1548     37.1397E-03     35.5165E-03
            1114            1549     34.9729E-03     33.4980E-03
            1130            1549     34.9729E-03     33.4980E-03
            1115            1549     34.9729E-03     33.4980E-03
            1131            1549     34.9729E-03     33.4980E-03
            1115            1550     32.9877E-03     31.6819E-03
            1116            1550     32.9877E-03     31.6819E-03
            1132            1550     32.9877E-03     31.6819E-03
            1131            1550     32.9877E-03     31.6819E-03
            1117            1551     31.2071E-03     30.1334E-03
            1132            1551     31.2071E-03     30.1334E-03
            1133            1551     31.2071E-03     30.1334E-03
            1116            1551     31.2071E-03     30.1334E-03
            1118            1552     29.6271E-03     28.8025E-03
            1117            1552     29.6271E-03     28.8025E-03
            1134            1552     29.6271E-03     28.8025E-03
            1133            1552     29.6271E-03     28.8025E-03
            1118            1553     28.1158E-03     27.8403E-03
            1119            1553     28.1158E-03     27.8403E-03
            1135            1553     28.1158E-03     27.8403E-03
            1134            1553     28.1158E-03     27.8403E-03
            1119            1554     26.7637E-03     27.0804E-03
            1120            1554     26.7637E-03     27.0804E-03
            1135            1554     26.7637E-03     27.0804E-03
            1136            1554     26.7637E-03     27.0804E-03
            1120            1555     25.7167E-03     25.1862E-03
            1136            1555     25.7167E-03     25.1862E-03
            1121            1555     25.7167E-03     25.1862E-03
            1137            1555     25.7167E-03     25.1862E-03
            1123            1556     45.3197E-03     45.5452E-03
            1122            1556     45.3197E-03     45.5452E-03
            1139            1556     45.3197E-03     45.5452E-03
            1138            1556     45.3197E-03     45.5452E-03
            1139            1557     43.9360E-03     45.3971E-03
            1140            1557     43.9360E-03     45.3971E-03
            1123            1557     43.9360E-03     45.3971E-03
            1124            1557     43.9360E-03     45.3971E-03
            1124            1558     46.6155E-03     47.2927E-03
            1125            1558     46.6155E-03     47.2927E-03
            1140            1558     46.6155E-03     47.2927E-03
            1141            1558     46.6155E-03     47.2927E-03
            1141            1559     46.3742E-03     46.3797E-03
            1142            1559     46.3742E-03     46.3797E-03
            1125            1559     46.3742E-03     46.3797E-03
            1126            1559     46.3742E-03     46.3797E-03
            1142            1560     43.9373E-03     43.8678E-03
            1143            1560     43.9373E-03     43.8678E-03
            1126            1560     43.9373E-03     43.8678E-03
            1127            1560     43.9373E-03     43.8678E-03
            1127            1561     41.2218E-03     41.0785E-03
            1143            1561     41.2218E-03     41.0785E-03
            1144            1561     41.2218E-03     41.0785E-03
            1128            1561     41.2218E-03     41.0785E-03
            1144            1562     38.3961E-03     38.2397E-03
            1129            1562     38.3961E-03     38.2397E-03
            1145            1562     38.3961E-03     38.2397E-03
            1128            1562     38.3961E-03     38.2397E-03
            1130            1563     35.7729E-03     35.6213E-03
            1146            1563     35.7729E-03     35.6213E-03
            1145            1563     35.7729E-03     35.6213E-03
            1129            1563     35.7729E-03     35.6213E-03
            1130            1564     33.3854E-03     33.2397E-03
            1147            1564     33.3854E-03     33.2397E-03
            1146            1564     33.3854E-03     33.2397E-03
            1131            1564     33.3854E-03     33.2397E-03
            1147            1565     31.2612E-03     31.1413E-03
            1132            1565     31.2612E-03     31.1413E-03
            1148            1565     31.2612E-03     31.1413E-03
            1131            1565     31.2612E-03     31.1413E-03
            1149            1566     29.4250E-03     29.3375E-03
            1132            1566     29.4250E-03     29.3375E-03
            1133            1566     29.4250E-03     29.3375E-03
            1148            1566     29.4250E-03     29.3375E-03
            1149            1567     27.8456E-03     27.8264E-03
            1134            1567     27.8456E-03     27.8264E-03
            1150            1567     27.8456E-03     27.8264E-03
            1133            1567     27.8456E-03     27.8264E-03
            1135            1568     26.5495E-03     26.4405E-03
            1150            1568     26.5495E-03     26.4405E-03
            1134            1568     26.5495E-03     26.4405E-03
            1151            1568     26.5495E-03     26.4405E-03
            1151            1569     25.5118E-03     24.6005E-03
            1152            1569     25.5118E-03     24.6005E-03
            1136            1569     25.5118E-03     24.6005E-03
            1135            1569     25.5118E-03     24.6005E-03
            1153            1570     24.1957E-03     22.1372E-03
            1152            1570     24.1957E-03     22.1372E-03
            1137            1570     24.1957E-03     22.1372E-03
            1136            1570     24.1957E-03     22.1372E-03
            1139            1571     57.3302E-03     58.8867E-03
            1154            1571     57.3302E-03     58.8867E-03
            1155            1571     57.3302E-03     58.8867E-03
            1138            1571     57.3302E-03     58.8867E-03
            1140            1572     51.5151E-03     53.1348E-03
            1155            1572     51.5151E-03     53.1348E-03
            1156            1572     51.5151E-03     53.1348E-03
            1139            1572     51.5151E-03     53.1348E-03
            1141            1573     48.4122E-03     50.4089E-03
            1156            1573     48.4122E-03     50.4089E-03
            1140            1573     48.4122E-03     50.4089E-03
            1157            1573     48.4122E-03     50.4089E-03
            1158            1574     45.5481E-03     47.4808E-03
            1142            1574     45.5481E-03     47.4808E-03
            1157            1574     45.5481E-03     47.4808E-03
            1141            1574     45.5481E-03     47.4808E-03
            1142            1575     42.6963E-03     44.4316E-03
            1158            1575     42.6963E-03     44.4316E-03
            1159            1575     42.6963E-03     44.4316E-03
            1143            1575     42.6963E-03     44.4316E-03
            1143            1576     39.6753E-03     41.2600E-03
            1144            1576     39.6753E-03     41.2600E-03
            1160            1576     39.6753E-03     41.2600E-03
            1159            1576     39.6753E-03     41.2600E-03
            1160            1577     36.7677E-03     38.2587E-03
            1161            1577     36.7677E-03     38.2587E-03
            1145            1577     36.7677E-03     38.2587E-03
            1144            1577     36.7677E-03     38.2587E-03
            1162            1578     34.0642E-03     35.4487E-03
            1161            1578     34.0642E-03     35.4487E-03
            1145            1578     34.0642E-03     35.4487E-03
            1146            1578     34.0642E-03     35.4487E-03
            1163            1579     31.5948E-03     32.8768E-03
            1162            1579     31.5948E-03     32.8768E-03
            1147            1579     31.5948E-03     32.8768E-03
            1146            1579     31.5948E-03     32.8768E-03
            1147            1580     29.4209E-03     30.5772E-03
            1148            1580     29.4209E-03     30.5772E-03
            1163            1580     29.4209E-03     30.5772E-03
            1164            1580     29.4209E-03     30.5772E-03
            1148            1581     27.5404E-03     28.5348E-03
            1165            1581     27.5404E-03     28.5348E-03
            1164            1581     27.5404E-03     28.5348E-03
            1149            1581     27.5404E-03     28.5348E-03
            1165            1582     25.9954E-03     26.7919E-03
            1149            1582     25.9954E-03     26.7919E-03
            1150            1582     25.9954E-03     26.7919E-03
            1166            1582     25.9954E-03     26.7919E-03
            1167            1583     24.8310E-03     25.0376E-03
            1151            1583     24.8310E-03     25.0376E-03
            1166            1583     24.8310E-03     25.0376E-03
            1150            1583     24.8310E-03     25.0376E-03
            1151            1584     23.7898E-03     22.7828E-03
            1152            1584     23.7898E-03     22.7828E-03
            1168            1584     23.7898E-03     22.7828E-03
            1167            1584     23.7898E-03     22.7828E-03
            1168            1585     22.5204E-03     20.3211E-03
            1153            1585     22.5204E-03     20.3211E-03
            1152            1585     22.5204E-03     20.3211E-03
            1169            1585     22.5204E-03     20.3211E-03
            1154            1586     70.2431E-03     70.6675E-03
            1170            1586     70.2431E-03     70.6675E-03
            1171            1586     70.2431E-03     70.6675E-03
            1155            1586     70.2431E-03     70.6675E-03
            1156            1587     56.8241E-03     59.2671E-03
            1155            1587     56.8241E-03     59.2671E-03
            1171            1587     56.8241E-03     59.2671E-03
            1172            1587     56.8241E-03     59.2671E-03
            1156            1588     48.1274E-03     51.6742E-03
            1172            1588     48.1274E-03     51.6742E-03
            1173            1588     48.1274E-03     51.6742E-03
            1157            1588     48.1274E-03     51.6742E-03
            1157            1589     43.6686E-03     47.3671E-03
            1173            1589     43.6686E-03     47.3671E-03
            1174            1589     43.6686E-03     47.3671E-03
            1158            1589     43.6686E-03     47.3671E-03
            1175            1590     40.4449E-03     43.9181E-03
            1158            1590     40.4449E-03     43.9181E-03
            1174            1590     40.4449E-03     43.9181E-03
            1159            1590     40.4449E-03     43.9181E-03
            1160            1591     37.4267E-03     40.7561E-03
            1175            1591     37.4267E-03     40.7561E-03
            1159            1591     37.4267E-03     40.7561E-03
            1176            1591     37.4267E-03     40.7561E-03
            1161            1592     34.6456E-03     37.8103E-03
            1160            1592     34.6456E-03     37.8103E-03
            1176            1592     34.6456E-03     37.8103E-03
            1177            1592     34.6456E-03     37.8103E-03
            1162            1593     31.9955E-03     34.9945E-03
            1177            1593     31.9955E-03     34.9945E-03
            1178            1593     31.9955E-03     34.9945E-03
            1161            1593     31.9955E-03     34.9945E-03
            1178            1594     29.5633E-03     32.3632E-03
            1179            1594     29.5633E-03     32.3632E-03
            1163            1594     29.5633E-03     32.3632E-03
            1162            1594     29.5633E-03     32.3632E-03
            1163            1595     27.3630E-03     29.9006E-03
            1180            1595     27.3630E-03     29.9006E-03
            1164            1595     27.3630E-03     29.9006E-03
            1179            1595     27.3630E-03     29.9006E-03
            1181            1596     25.4752E-03     27.6826E-03
            1164            1596     25.4752E-03     27.6826E-03
            1165            1596     25.4752E-03     27.6826E-03
            1180            1596     25.4752E-03     27.6826E-03
            1181            1597     23.9276E-03     25.6141E-03
            1166            1597     23.9276E-03     25.6141E-03
            1182            1597     23.9276E-03     25.6141E-03
            1165            1597     23.9276E-03     25.6141E-03
            1167            1598     22.6958E-03     23.7729E-03
            1183            1598     22.6958E-03     23.7729E-03
            1166            1598     22.6958E-03     23.7729E-03
            1182            1598     22.6958E-03     23.7729E-03
            1167            1599     21.7616E-03     21.9352E-03
            1168            1599     21.7616E-03     21.9352E-03
            1184            1599     21.7616E-03     21.9352E-03
            1183            1599     21.7616E-03     21.9352E-03
            1168            1600     20.7920E-03     19.3812E-03
            1169            1600     20.7920E-03     19.3812E-03
            1185            1600     20.7920E-03     19.3812E-03
            1184            1600     20.7920E-03     19.3812E-03
            1186            1601     77.4427E-03     82.1667E-03
            1170            1601     77.4427E-03     82.1667E-03
            1171            1601     77.4427E-03     82.1667E-03
            1187            1601     77.4427E-03     82.1667E-03
            1172            1602     56.1991E-03     61.7883E-03
            1171            1602     56.1991E-03     61.7883E-03
            1187            1602     56.1991E-03     61.7883E-03
            1188            1602     56.1991E-03     61.7883E-03
            1172            1603     46.3951E-03     51.9235E-03
            1173            1603     46.3951E-03     51.9235E-03
            1189            1603     46.3951E-03     51.9235E-03
            1188            1603     46.3951E-03     51.9235E-03
            1189            1604     41.4395E-03     46.8032E-03
            1174            1604     41.4395E-03     46.8032E-03
            1173            1604     41.4395E-03     46.8032E-03
            1190            1604     41.4395E-03     46.8032E-03
            1174            1605     37.8169E-03     43.0800E-03
            1191            1605     37.8169E-03     43.0800E-03
            1190            1605     37.8169E-03     43.0800E-03
            1175            1605     37.8169E-03     43.0800E-03
            1192            1606     34.9665E-03     40.0667E-03
            1191            1606     34.9665E-03     40.0667E-03
            1175            1606     34.9665E-03     40.0667E-03
            1176            1606     34.9665E-03     40.0667E-03
            1192            1607     32.2578E-03     37.1785E-03
            1193            1607     32.2578E-03     37.1785E-03
            1176            1607     32.2578E-03     37.1785E-03
            1177            1607     32.2578E-03     37.1785E-03
            1177            1608     29.7131E-03     34.4290E-03
            1194            1608     29.7131E-03     34.4290E-03
            1193            1608     29.7131E-03     34.4290E-03
            1178            1608     29.7131E-03     34.4290E-03
            1194            1609     27.3074E-03     31.7368E-03
            1179            1609     27.3074E-03     31.7368E-03
            1195            1609     27.3074E-03     31.7368E-03
            1178            1609     27.3074E-03     31.7368E-03
            1179            1610     25.1091E-03     29.1774E-03
            1196            1610     25.1091E-03     29.1774E-03
            1195            1610     25.1091E-03     29.1774E-03
            1180            1610     25.1091E-03     29.1774E-03
            1181            1611     23.1783E-03     26.7333E-03
            1196            1611     23.1783E-03     26.7333E-03
            1197            1611     23.1783E-03     26.7333E-03
            1180            1611     23.1783E-03     26.7333E-03
            1197            1612     21.5904E-03     24.4555E-03
            1182            1612     21.5904E-03     24.4555E-03
            1198            1612     21.5904E-03     24.4555E-03
            1181            1612     21.5904E-03     24.4555E-03
            1182            1613     20.3179E-03     22.3526E-03
            1183            1613     20.3179E-03     22.3526E-03
            1199            1613     20.3179E-03     22.3526E-03
            1198            1613     20.3179E-03     22.3526E-03
            1183            1614     19.5332E-03     20.7331E-03
            1184            1614     19.5332E-03     20.7331E-03
            1200            1614     19.5332E-03     20.7331E-03
            1199            1614     19.5332E-03     20.7331E-03
            1185            1615     19.0006E-03     19.1619E-03
            1184            1615     19.0006E-03     19.1619E-03
            1201            1615     19.0006E-03     19.1619E-03
            1200            1615     19.0006E-03     19.1619E-03
            1186            1616     82.5183E-03     84.2419E-03
            1202            1616     82.5183E-03     84.2419E-03
            1203            1616     82.5183E-03     84.2419E-03
            1187            1616     82.5183E-03     84.2419E-03
            1203            1617     75.4724E-03     75.7171E-03
            1204            1617     75.4724E-03     75.7171E-03
            1187            1617     75.4724E-03     75.7171E-03
            1188            1617     75.4724E-03     75.7171E-03
            1189            1618     71.0356E-03     71.2578E-03
            1188            1618     71.0356E-03     71.2578E-03
            1204            1618     71.0356E-03     71.2578E-03
            1205            1618     71.0356E-03     71.2578E-03
            1190            1619     66.6801E-03     67.1761E-03
            1206            1619     66.6801E-03     67.1761E-03
            1189            1619     66.6801E-03     67.1761E-03
            1205            1619     66.6801E-03     67.1761E-03
            1191            1620     62.3812E-03     63.0174E-03
            1207            1620     62.3812E-03     63.0174E-03
            1190            1620     62.3812E-03     63.0174E-03
            1206            1620     62.3812E-03     63.0174E-03
            1207            1621     57.9669E-03     58.6658E-03
            1191            1621     57.9669E-03     58.6658E-03
            1208            1621     57.9669E-03     58.6658E-03
            1192            1621     57.9669E-03     58.6658E-03
            1192            1622     53.4507E-03     54.1648E-03
            1208            1622     53.4507E-03     54.1648E-03
            1209            1622     53.4507E-03     54.1648E-03
            1193            1622     53.4507E-03     54.1648E-03
            1209            1623     48.9662E-03     49.6693E-03
            1210            1623     48.9662E-03     49.6693E-03
            1194            1623     48.9662E-03     49.6693E-03
            1193            1623     48.9662E-03     49.6693E-03
            1210            1624     44.5275E-03     45.1702E-03
            1195            1624     44.5275E-03     45.1702E-03
            1211            1624     44.5275E-03     45.1702E-03
            1194            1624     44.5275E-03     45.1702E-03
            1196            1625     40.2903E-03     40.8736E-03
            1212            1625     40.2903E-03     40.8736E-03
            1211            1625     40.2903E-03     40.8736E-03
            1195            1625     40.2903E-03     40.8736E-03
            1212            1626     36.2737E-03     36.7253E-03
            1213            1626     36.2737E-03     36.7253E-03
            1197            1626     36.2737E-03     36.7253E-03
            1196            1626     36.2737E-03     36.7253E-03
            1198            1627     32.6817E-03     33.0310E-03
            1213            1627     32.6817E-03     33.0310E-03
            1197            1627     32.6817E-03     33.0310E-03
            1214            1627     32.6817E-03     33.0310E-03
            1214            1628     29.5016E-03     29.6367E-03
            1215            1628     29.5016E-03     29.6367E-03
            1198            1628     29.5016E-03     29.6367E-03
            1199            1628     29.5016E-03     29.6367E-03
            1215            1629     26.9899E-03     27.3339E-03
            1199            1629     26.9899E-03     27.3339E-03
            1216            1629     26.9899E-03     27.3339E-03
            1200            1629     26.9899E-03     27.3339E-03
            1200            1630     24.3965E-03     26.3245E-03
            1216            1630     24.3965E-03     26.3245E-03
            1217            1630     24.3965E-03     26.3245E-03
            1201            1630     24.3965E-03     26.3245E-03
            1203            1631     93.1530E-03     89.8137E-03
            1218            1631     93.1530E-03     89.8137E-03
            1202            1631     93.1530E-03     89.8137E-03
            1219            1631     93.1530E-03     89.8137E-03
            1219            1632     99.6842E-03     95.6790E-03
            1203            1632     99.6842E-03     95.6790E-03
            1220            1632     99.6842E-03     95.6790E-03
            1204            1632     99.6842E-03     95.6790E-03
            1205            1633     99.0051E-03     95.1594E-03
            1204            1633     99.0051E-03     95.1594E-03
            1220            1633     99.0051E-03     95.1594E-03
            1221            1633     99.0051E-03     95.1594E-03
            1221            1634     94.6614E-03     90.9834E-03
            1222            1634     94.6614E-03     90.9834E-03
            1205            1634     94.6614E-03     90.9834E-03
            1206            1634     94.6614E-03     90.9834E-03
            1223            1635     88.6487E-03     85.1434E-03
            1222            1635     88.6487E-03     85.1434E-03
            1207            1635     88.6487E-03     85.1434E-03
            1206            1635     88.6487E-03     85.1434E-03
            1223            1636     81.9262E-03     78.6551E-03
            1208            1636     81.9262E-03     78.6551E-03
            1224            1636     81.9262E-03     78.6551E-03
            1207            1636     81.9262E-03     78.6551E-03
            1224            1637     75.0962E-03     71.9213E-03
            1209            1637     75.0962E-03     71.9213E-03
            1225            1637     75.0962E-03     71.9213E-03
            1208            1637     75.0962E-03     71.9213E-03
            1209            1638     68.2157E-03     65.1935E-03
            1225            1638     68.2157E-03     65.1935E-03
            1210            1638     68.2157E-03     65.1935E-03
            1226            1638     68.2157E-03     65.1935E-03
            1227            1639     61.4679E-03     58.5746E-03
            1226            1639     61.4679E-03     58.5746E-03
            1210            1639     61.4679E-03     58.5746E-03
            1211            1639     61.4679E-03     58.5746E-03
            1211            1640     54.9100E-03     52.1992E-03
            1212            1640     54.9100E-03     52.1992E-03
            1228            1640     54.9100E-03     52.1992E-03
            1227            1640     54.9100E-03     52.1992E-03
            1229            1641     48.6582E-03     46.1990E-03
            1228            1641     48.6582E-03     46.1990E-03
            1212            1641     48.6582E-03     46.1990E-03
            1213            1641     48.6582E-03     46.1990E-03
            1213            1642     42.8732E-03     40.7743E-03
            1230            1642     42.8732E-03     40.7743E-03
            1214            1642     42.8732E-03     40.7743E-03
            1229            1642     42.8732E-03     40.7743E-03
            1230            1643     37.6596E-03     36.2293E-03
            1214            1643     37.6596E-03     36.2293E-03
            1215            1643     37.6596E-03     36.2293E-03
            1231            1643     37.6596E-03     36.2293E-03
            1231            1644     33.0816E-03     33.2439E-03
            1232            1644     33.0816E-03     33.2439E-03
            1215            1644     33.0816E-03     33.2439E-03
            1216            1644     33.0816E-03     33.2439E-03
            1232            1645     29.4775E-03     32.0247E-03
            1233            1645     29.4775E-03     32.0247E-03
            1216            1645     29.4775E-03     32.0247E-03
            1217            1645     29.4775E-03     32.0247E-03
            1219            1646     106.258E-03     107.621E-03
            1235            1646     106.258E-03     107.621E-03
            1218            1646     106.258E-03     107.621E-03
            1234            1646     106.258E-03     107.621E-03
            1236            1647     105.614E-03     106.886E-03
            1220            1647     105.614E-03     106.886E-03
            1219            1647     105.614E-03     106.886E-03
            1235            1647     105.614E-03     106.886E-03
            1220            1648     103.150E-03     103.026E-03
            1236            1648     103.150E-03     103.026E-03
            1237            1648     103.150E-03     103.026E-03
            1221            1648     103.150E-03     103.026E-03
            1221            1649     96.5503E-03     96.0034E-03
            1222            1649     96.5503E-03     96.0034E-03
            1237            1649     96.5503E-03     96.0034E-03
            1238            1649     96.5503E-03     96.0034E-03
            1223            1650     88.8344E-03     88.2532E-03
            1222            1650     88.8344E-03     88.2532E-03
            1239            1650     88.8344E-03     88.2532E-03
            1238            1650     88.8344E-03     88.2532E-03
            1240            1651     81.0971E-03     80.4636E-03
            1239            1651     81.0971E-03     80.4636E-03
            1223            1651     81.0971E-03     80.4636E-03
            1224            1651     81.0971E-03     80.4636E-03
            1225            1652     73.3915E-03     72.7799E-03
            1240            1652     73.3915E-03     72.7799E-03
            1241            1652     73.3915E-03     72.7799E-03
            1224            1652     73.3915E-03     72.7799E-03
            1241            1653     65.8954E-03     65.2854E-03
            1242            1653     65.8954E-03     65.2854E-03
            1225            1653     65.8954E-03     65.2854E-03
            1226            1653     65.8954E-03     65.2854E-03
            1226            1654     58.5985E-03     58.0176E-03
            1243            1654     58.5985E-03     58.0176E-03
            1242            1654     58.5985E-03     58.0176E-03
            1227            1654     58.5985E-03     58.0176E-03
            1228            1655     51.5863E-03     51.0107E-03
            1244            1655     51.5863E-03     51.0107E-03
            1227            1655     51.5863E-03     51.0107E-03
            1243            1655     51.5863E-03     51.0107E-03
            1245            1656     44.9303E-03     44.4209E-03
            1228            1656     44.9303E-03     44.4209E-03
            1244            1656     44.9303E-03     44.4209E-03
            1229            1656     44.9303E-03     44.4209E-03
            1246            1657     38.8025E-03     38.4064E-03
            1245            1657     38.8025E-03     38.4064E-03
            1229            1657     38.8025E-03     38.4064E-03
            1230            1657     38.8025E-03     38.4064E-03
            1247            1658     33.3090E-03     33.3412E-03
            1230            1658     33.3090E-03     33.3412E-03
            1231            1658     33.3090E-03     33.3412E-03
            1246            1658     33.3090E-03     33.3412E-03
            1231            1659     28.9650E-03     29.7060E-03
            1247            1659     28.9650E-03     29.7060E-03
            1248            1659     28.9650E-03     29.7060E-03
            1232            1659     28.9650E-03     29.7060E-03
            1249            1660     26.7275E-03     26.3623E-03
            1248            1660     26.7275E-03     26.3623E-03
            1233            1660     26.7275E-03     26.3623E-03
            1232            1660     26.7275E-03     26.3623E-03
            1235            1661     119.716E-03     122.854E-03
            1251            1661     119.716E-03     122.854E-03
            1234            1661     119.716E-03     122.854E-03
            1250            1661     119.716E-03     122.854E-03
            1236            1662     112.389E-03     115.480E-03
            1252            1662     112.389E-03     115.480E-03
            1235            1662     112.389E-03     115.480E-03
            1251            1662     112.389E-03     115.480E-03
            1236            1663     104.596E-03     107.403E-03
            1252            1663     104.596E-03     107.403E-03
            1253            1663     104.596E-03     107.403E-03
            1237            1663     104.596E-03     107.403E-03
            1254            1664     95.9507E-03     98.4742E-03
            1237            1664     95.9507E-03     98.4742E-03
            1253            1664     95.9507E-03     98.4742E-03
            1238            1664     95.9507E-03     98.4742E-03
            1255            1665     87.6055E-03     89.8633E-03
            1254            1665     87.6055E-03     89.8633E-03
            1238            1665     87.6055E-03     89.8633E-03
            1239            1665     87.6055E-03     89.8633E-03
            1256            1666     79.3545E-03     81.4421E-03
            1239            1666     79.3545E-03     81.4421E-03
            1240            1666     79.3545E-03     81.4421E-03
            1255            1666     79.3545E-03     81.4421E-03
            1240            1667     71.2817E-03     73.3056E-03
            1257            1667     71.2817E-03     73.3056E-03
            1256            1667     71.2817E-03     73.3056E-03
            1241            1667     71.2817E-03     73.3056E-03
            1258            1668     63.4152E-03     65.3832E-03
            1241            1668     63.4152E-03     65.3832E-03
            1257            1668     63.4152E-03     65.3832E-03
            1242            1668     63.4152E-03     65.3832E-03
            1258            1669     55.7669E-03     57.6747E-03
            1242            1669     55.7669E-03     57.6747E-03
            1259            1669     55.7669E-03     57.6747E-03
            1243            1669     55.7669E-03     57.6747E-03
            1243            1670     48.3906E-03     50.2317E-03
            1259            1670     48.3906E-03     50.2317E-03
            1260            1670     48.3906E-03     50.2317E-03
            1244            1670     48.3906E-03     50.2317E-03
            1244            1671     41.3976E-03     43.1186E-03
            1261            1671     41.3976E-03     43.1186E-03
            1245            1671     41.3976E-03     43.1186E-03
            1260            1671     41.3976E-03     43.1186E-03
            1245            1672     34.9397E-03     36.5604E-03
            1262            1672     34.9397E-03     36.5604E-03
            1246            1672     34.9397E-03     36.5604E-03
            1261            1672     34.9397E-03     36.5604E-03
            1262            1673     29.3517E-03     30.7838E-03
            1263            1673     29.3517E-03     30.7838E-03
            1247            1673     29.3517E-03     30.7838E-03
            1246            1673     29.3517E-03     30.7838E-03
            1247            1674     25.2896E-03     25.4372E-03
            1263            1674     25.2896E-03     25.4372E-03
            1264            1674     25.2896E-03     25.4372E-03
            1248            1674     25.2896E-03     25.4372E-03
            1264            1675     22.7850E-03     20.6108E-03
            1265            1675     22.7850E-03     20.6108E-03
            1248            1675     22.7850E-03     20.6108E-03
            1249            1675     22.7850E-03     20.6108E-03
            1266            1676     132.743E-03     134.347E-03
            1267            1676     132.743E-03     134.347E-03
            1251            1676     132.743E-03     134.347E-03
            1250            1676     132.743E-03     134.347E-03
            1268            1677     116.457E-03     120.616E-03
            1267            1677     116.457E-03     120.616E-03
            1252            1677     116.457E-03     120.616E-03
            1251            1677     116.457E-03     120.616E-03
            1269            1678     102.779E-03     108.097E-03
            1252            1678     102.779E-03     108.097E-03
            1253            1678     102.779E-03     108.097E-03
            1268            1678     102.779E-03     108.097E-03
            1269            1679     93.4182E-03     98.5821E-03
            1253            1679     93.4182E-03     98.5821E-03
            1254            1679     93.4182E-03     98.5821E-03
            1270            1679     93.4182E-03     98.5821E-03
            1254            1680     84.9250E-03     89.8048E-03
            1271            1680     84.9250E-03     89.8048E-03
            1255            1680     84.9250E-03     89.8048E-03
            1270            1680     84.9250E-03     89.8048E-03
            1256            1681     76.6510E-03     81.4479E-03
            1255            1681     76.6510E-03     81.4479E-03
            1271            1681     76.6510E-03     81.4479E-03
            1272            1681     76.6510E-03     81.4479E-03
            1256            1682     68.5916E-03     73.2927E-03
            1273            1682     68.5916E-03     73.2927E-03
            1257            1682     68.5916E-03     73.2927E-03
            1272            1682     68.5916E-03     73.2927E-03
            1274            1683     60.6110E-03     65.2674E-03
            1258            1683     60.6110E-03     65.2674E-03
            1273            1683     60.6110E-03     65.2674E-03
            1257            1683     60.6110E-03     65.2674E-03
            1258            1684     52.8019E-03     57.3816E-03
            1274            1684     52.8019E-03     57.3816E-03
            1275            1684     52.8019E-03     57.3816E-03
            1259            1684     52.8019E-03     57.3816E-03
            1260            1685     45.1946E-03     49.6570E-03
            1275            1685     45.1946E-03     49.6570E-03
            1276            1685     45.1946E-03     49.6570E-03
            1259            1685     45.1946E-03     49.6570E-03
            1260            1686     37.9066E-03     42.1827E-03
            1261            1686     37.9066E-03     42.1827E-03
            1276            1686     37.9066E-03     42.1827E-03
            1277            1686     37.9066E-03     42.1827E-03
            1261            1687     31.1323E-03     35.0537E-03
            1262            1687     31.1323E-03     35.0537E-03
            1278            1687     31.1323E-03     35.0537E-03
            1277            1687     31.1323E-03     35.0537E-03
            1279            1688     25.3626E-03     28.4306E-03
            1262            1688     25.3626E-03     28.4306E-03
            1263            1688     25.3626E-03     28.4306E-03
            1278            1688     25.3626E-03     28.4306E-03
            1263            1689     21.0472E-03     22.1080E-03
            1280            1689     21.0472E-03     22.1080E-03
            1264            1689     21.0472E-03     22.1080E-03
            1279            1689     21.0472E-03     22.1080E-03
            1264            1690     18.6068E-03     16.7989E-03
            1281            1690     18.6068E-03     16.7989E-03
            1265            1690     18.6068E-03     16.7989E-03
            1280            1690     18.6068E-03     16.7989E-03
            1283            1691     138.402E-03     143.758E-03
            1267            1691     138.402E-03     143.758E-03
            1266            1691     138.402E-03     143.758E-03
            1282            1691     138.402E-03     143.758E-03
            1283            1692     113.539E-03     120.517E-03
            1284            1692     113.539E-03     120.517E-03
            1268            1692     113.539E-03     120.517E-03
            1267            1692     113.539E-03     120.517E-03
            1284            1693     99.5055E-03     106.708E-03
            1268            1693     99.5055E-03     106.708E-03
            1285            1693     99.5055E-03     106.708E-03
            1269            1693     99.5055E-03     106.708E-03
            1269            1694     89.8957E-03     97.2213E-03
            1285            1694     89.8957E-03     97.2213E-03
            1286            1694     89.8957E-03     97.2213E-03
            1270            1694     89.8957E-03     97.2213E-03
            1286            1695     81.3521E-03     88.7883E-03
            1271            1695     81.3521E-03     88.7883E-03
            1270            1695     81.3521E-03     88.7883E-03
            1287            1695     81.3521E-03     88.7883E-03
            1272            1696     73.3621E-03     80.8176E-03
            1288            1696     73.3621E-03     80.8176E-03
            1271            1696     73.3621E-03     80.8176E-03
            1287            1696     73.3621E-03     80.8176E-03
            1288            1697     65.4072E-03     72.8754E-03
            1289            1697     65.4072E-03     72.8754E-03
            1272            1697     65.4072E-03     72.8754E-03
            1273            1697     65.4072E-03     72.8754E-03
            1274            1698     57.5348E-03     64.9764E-03
            1289            1698     57.5348E-03     64.9764E-03
            1290            1698     57.5348E-03     64.9764E-03
            1273            1698     57.5348E-03     64.9764E-03
            1290            1699     49.6876E-03     57.0832E-03
            1275            1699     49.6876E-03     57.0832E-03
            1274            1699     49.6876E-03     57.0832E-03
            1291            1699     49.6876E-03     57.0832E-03
            1275            1700     41.9631E-03     49.2632E-03
            1291            1700     41.9631E-03     49.2632E-03
            1292            1700     41.9631E-03     49.2632E-03
            1276            1700     41.9631E-03     49.2632E-03
            1277            1701     34.4309E-03     41.5461E-03
            1293            1701     34.4309E-03     41.5461E-03
            1292            1701     34.4309E-03     41.5461E-03
            1276            1701     34.4309E-03     41.5461E-03
            1294            1702     27.2999E-03     33.9794E-03
            1293            1702     27.2999E-03     33.9794E-03
            1277            1702     27.2999E-03     33.9794E-03
            1278            1702     27.2999E-03     33.9794E-03
            1278            1703     20.9386E-03     26.5304E-03
            1279            1703     20.9386E-03     26.5304E-03
            1294            1703     20.9386E-03     26.5304E-03
            1295            1703     20.9386E-03     26.5304E-03
            1296            1704     16.3508E-03     19.7562E-03
            1280            1704     16.3508E-03     19.7562E-03
            1295            1704     16.3508E-03     19.7562E-03
            1279            1704     16.3508E-03     19.7562E-03
            1281            1705     14.9423E-03     14.0588E-03
            1296            1705     14.9423E-03     14.0588E-03
            1280            1705     14.9423E-03     14.0588E-03
            1297            1705     14.9423E-03     14.0588E-03
            1283            1706     142.275E-03     144.831E-03
            1282            1706     142.275E-03     144.831E-03
            1298            1706     142.275E-03     144.831E-03
            1299            1706     142.275E-03     144.831E-03
            1283            1707     131.043E-03     131.746E-03
            1284            1707     131.043E-03     131.746E-03
            1300            1707     131.043E-03     131.746E-03
            1299            1707     131.043E-03     131.746E-03
            1301            1708     122.705E-03     123.985E-03
            1284            1708     122.705E-03     123.985E-03
            1285            1708     122.705E-03     123.985E-03
            1300            1708     122.705E-03     123.985E-03
            1302            1709     114.326E-03     116.372E-03
            1286            1709     114.326E-03     116.372E-03
            1285            1709     114.326E-03     116.372E-03
            1301            1709     114.326E-03     116.372E-03
            1286            1710     105.849E-03     108.346E-03
            1287            1710     105.849E-03     108.346E-03
            1303            1710     105.849E-03     108.346E-03
            1302            1710     105.849E-03     108.346E-03
            1303            1711     97.0428E-03     99.9136E-03
            1287            1711     97.0428E-03     99.9136E-03
            1304            1711     97.0428E-03     99.9136E-03
            1288            1711     97.0428E-03     99.9136E-03
            1305            1712     88.0538E-03     91.0597E-03
            1304            1712     88.0538E-03     91.0597E-03
            1289            1712     88.0538E-03     91.0597E-03
            1288            1712     88.0538E-03     91.0597E-03
            1306            1713     78.8942E-03     82.0330E-03
            1305            1713     78.8942E-03     82.0330E-03
            1290            1713     78.8942E-03     82.0330E-03
            1289            1713     78.8942E-03     82.0330E-03
            1290            1714     69.7575E-03     72.9543E-03
            1291            1714     69.7575E-03     72.9543E-03
            1307            1714     69.7575E-03     72.9543E-03
            1306            1714     69.7575E-03     72.9543E-03
            1291            1715     60.6789E-03     63.9452E-03
            1308            1715     60.6789E-03     63.9452E-03
            1307            1715     60.6789E-03     63.9452E-03
            1292            1715     60.6789E-03     63.9452E-03
            1309            1716     51.8959E-03     55.1584E-03
            1293            1716     51.8959E-03     55.1584E-03
            1292            1716     51.8959E-03     55.1584E-03
            1308            1716     51.8959E-03     55.1584E-03
            1309            1717     43.5455E-03     46.7351E-03
            1310            1717     43.5455E-03     46.7351E-03
            1294            1717     43.5455E-03     46.7351E-03
            1293            1717     43.5455E-03     46.7351E-03
            1295            1718     36.0047E-03     38.8677E-03
            1294            1718     36.0047E-03     38.8677E-03
            1310            1718     36.0047E-03     38.8677E-03
            1311            1718     36.0047E-03     38.8677E-03
            1312            1719     30.0591E-03     32.2937E-03
            1311            1719     30.0591E-03     32.2937E-03
            1295            1719     30.0591E-03     32.2937E-03
            1296            1719     30.0591E-03     32.2937E-03
            1312            1720     25.9663E-03     28.7689E-03
            1296            1720     25.9663E-03     28.7689E-03
            1313            1720     25.9663E-03     28.7689E-03
            1297            1720     25.9663E-03     28.7689E-03
            1314            1721     154.843E-03     151.645E-03
            1315            1721     154.843E-03     151.645E-03
            1299            1721     154.843E-03     151.645E-03
            1298            1721     154.843E-03     151.645E-03
            1316            1722     156.008E-03     153.054E-03
            1315            1722     156.008E-03     153.054E-03
            1300            1722     156.008E-03     153.054E-03
            1299            1722     156.008E-03     153.054E-03
            1317            1723     151.666E-03     148.568E-03
            1300            1723     151.666E-03     148.568E-03
            1301            1723     151.666E-03     148.568E-03
            1316            1723     151.666E-03     148.568E-03
            1317            1724     143.626E-03     140.979E-03
            1318            1724     143.626E-03     140.979E-03
            1301            1724     143.626E-03     140.979E-03
            1302            1724     143.626E-03     140.979E-03
            1318            1725     133.939E-03     131.645E-03
            1302            1725     133.939E-03     131.645E-03
            1303            1725     133.939E-03     131.645E-03
            1319            1725     133.939E-03     131.645E-03
            1320            1726     123.328E-03     121.270E-03
            1304            1726     123.328E-03     121.270E-03
            1303            1726     123.328E-03     121.270E-03
            1319            1726     123.328E-03     121.270E-03
            1304            1727     112.302E-03     110.489E-03
            1320            1727     112.302E-03     110.489E-03
            1321            1727     112.302E-03     110.489E-03
            1305            1727     112.302E-03     110.489E-03
            1306            1728     101.206E-03     99.4989E-03
            1321            1728     101.206E-03     99.4989E-03
            1322            1728     101.206E-03     99.4989E-03
            1305            1728     101.206E-03     99.4989E-03
            1307            1729     90.1372E-03     88.5649E-03
            1323            1729     90.1372E-03     88.5649E-03
            1306            1729     90.1372E-03     88.5649E-03
            1322            1729     90.1372E-03     88.5649E-03
            1308            1730     79.3074E-03     77.8245E-03
            1323            1730     79.3074E-03     77.8245E-03
            1324            1730     79.3074E-03     77.8245E-03
            1307            1730     79.3074E-03     77.8245E-03
            1324            1731     68.8371E-03     67.5073E-03
            1325            1731     68.8371E-03     67.5073E-03
            1308            1731     68.8371E-03     67.5073E-03
            1309            1731     68.8371E-03     67.5073E-03
            1325            1732     59.0438E-03     57.9338E-03
            1326            1732     59.0438E-03     57.9338E-03
            1310            1732     59.0438E-03     57.9338E-03
            1309            1732     59.0438E-03     57.9338E-03
            1327            1733     50.1479E-03     49.6178E-03
            1310            1733     50.1479E-03     49.6178E-03
            1326            1733     50.1479E-03     49.6178E-03
            1311            1733     50.1479E-03     49.6178E-03
            1312            1734     42.4675E-03     43.7970E-03
            1327            1734     42.4675E-03     43.7970E-03
            1328            1734     42.4675E-03     43.7970E-03
            1311            1734     42.4675E-03     43.7970E-03
            1312            1735     37.0944E-03     41.6475E-03
            1313            1735     37.0944E-03     41.6475E-03
            1328            1735     37.0944E-03     41.6475E-03
            1329            1735     37.0944E-03     41.6475E-03
            1315            1736     169.452E-03     171.858E-03
            1331            1736     169.452E-03     171.858E-03
            1314            1736     169.452E-03     171.858E-03
            1330            1736     169.452E-03     171.858E-03
            1331            1737     165.254E-03     167.369E-03
            1316            1737     165.254E-03     167.369E-03
            1332            1737     165.254E-03     167.369E-03
            1315            1737     165.254E-03     167.369E-03
            1332            1738     158.479E-03     159.757E-03
            1316            1738     158.479E-03     159.757E-03
            1317            1738     158.479E-03     159.757E-03
            1333            1738     158.479E-03     159.757E-03
            1317            1739     148.396E-03     148.966E-03
            1334            1739     148.396E-03     148.966E-03
            1333            1739     148.396E-03     148.966E-03
            1318            1739     148.396E-03     148.966E-03
            1319            1740     136.672E-03     136.955E-03
            1335            1740     136.672E-03     136.955E-03
            1318            1740     136.672E-03     136.955E-03
            1334            1740     136.672E-03     136.955E-03
            1320            1741     124.354E-03     124.612E-03
            1335            1741     124.354E-03     124.612E-03
            1336            1741     124.354E-03     124.612E-03
            1319            1741     124.354E-03     124.612E-03
            1321            1742     112.050E-03     112.252E-03
            1336            1742     112.050E-03     112.252E-03
            1337            1742     112.050E-03     112.252E-03
            1320            1742     112.050E-03     112.252E-03
            1322            1743     99.8073E-03     100.024E-03
            1338            1743     99.8073E-03     100.024E-03
            1321            1743     99.8073E-03     100.024E-03
            1337            1743     99.8073E-03     100.024E-03
            1323            1744     87.7887E-03     87.9938E-03
            1339            1744     87.7887E-03     87.9938E-03
            1338            1744     87.7887E-03     87.9938E-03
            1322            1744     87.7887E-03     87.9938E-03
            1323            1745     76.0527E-03     76.2581E-03
            1339            1745     76.0527E-03     76.2581E-03
            1324            1745     76.0527E-03     76.2581E-03
            1340            1745     76.0527E-03     76.2581E-03
            1340            1746     64.7104E-03     64.9706E-03
            1324            1746     64.7104E-03     64.9706E-03
            1325            1746     64.7104E-03     64.9706E-03
            1341            1746     64.7104E-03     64.9706E-03
            1325            1747     53.9759E-03     54.4413E-03
            1326            1747     53.9759E-03     54.4413E-03
            1342            1747     53.9759E-03     54.4413E-03
            1341            1747     53.9759E-03     54.4413E-03
            1342            1748     44.1523E-03     45.3108E-03
            1326            1748     44.1523E-03     45.3108E-03
            1343            1748     44.1523E-03     45.3108E-03
            1327            1748     44.1523E-03     45.3108E-03
            1327            1749     36.2208E-03     38.6509E-03
            1344            1749     36.2208E-03     38.6509E-03
            1328            1749     36.2208E-03     38.6509E-03
            1343            1749     36.2208E-03     38.6509E-03
            1345            1750     32.6180E-03     33.6711E-03
            1328            1750     32.6180E-03     33.6711E-03
            1329            1750     32.6180E-03     33.6711E-03
            1344            1750     32.6180E-03     33.6711E-03
            1330            1751     184.024E-03     187.316E-03
            1331            1751     184.024E-03     187.316E-03
            1346            1751     184.024E-03     187.316E-03
            1347            1751     184.024E-03     187.316E-03
            1348            1752     173.696E-03     178.497E-03
            1347            1752     173.696E-03     178.497E-03
            1331            1752     173.696E-03     178.497E-03
            1332            1752     173.696E-03     178.497E-03
            1348            1753     163.182E-03     167.208E-03
            1333            1753     163.182E-03     167.208E-03
            1332            1753     163.182E-03     167.208E-03
            1349            1753     163.182E-03     167.208E-03
            1333            1754     150.658E-03     153.920E-03
            1349            1754     150.658E-03     153.920E-03
            1334            1754     150.658E-03     153.920E-03
            1350            1754     150.658E-03     153.920E-03
            1335            1755     137.295E-03     140.151E-03
            1351            1755     137.295E-03     140.151E-03
            1334            1755     137.295E-03     140.151E-03
            1350            1755     137.295E-03     140.151E-03
            1352            1756     124.129E-03     126.645E-03
            1335            1756     124.129E-03     126.645E-03
            1351            1756     124.129E-03     126.645E-03
            1336            1756     124.129E-03     126.645E-03
            1337            1757     111.015E-03     113.357E-03
            1353            1757     111.015E-03     113.357E-03
            1352            1757     111.015E-03     113.357E-03
            1336            1757     111.015E-03     113.357E-03
            1353            1758     98.1330E-03     100.365E-03
            1337            1758     98.1330E-03     100.365E-03
            1354            1758     98.1330E-03     100.365E-03
            1338            1758     98.1330E-03     100.365E-03
            1354            1759     85.4797E-03     87.6300E-03
            1339            1759     85.4797E-03     87.6300E-03
            1338            1759     85.4797E-03     87.6300E-03
            1355            1759     85.4797E-03     87.6300E-03
            1355            1760     73.0861E-03     75.1870E-03
            1356            1760     73.0861E-03     75.1870E-03
            1339            1760     73.0861E-03     75.1870E-03
            1340            1760     73.0861E-03     75.1870E-03
            1340            1761     61.0778E-03     63.1576E-03
            1356            1761     61.0778E-03     63.1576E-03
            1357            1761     61.0778E-03     63.1576E-03
            1341            1761     61.0778E-03     63.1576E-03
            1342            1762     49.5672E-03     51.7265E-03
            1358            1762     49.5672E-03     51.7265E-03
            1341            1762     49.5672E-03     51.7265E-03
            1357            1762     49.5672E-03     51.7265E-03
            1358            1763     39.0042E-03     41.4857E-03
            1359            1763     39.0042E-03     41.4857E-03
            1343            1763     39.0042E-03     41.4857E-03
            1342            1763     39.0042E-03     41.4857E-03
            1360            1764     30.9595E-03     32.5541E-03
            1359            1764     30.9595E-03     32.5541E-03
            1343            1764     30.9595E-03     32.5541E-03
            1344            1764     30.9595E-03     32.5541E-03
            1361            1765     26.6159E-03     25.3465E-03
            1345            1765     26.6159E-03     25.3465E-03
            1360            1765     26.6159E-03     25.3465E-03
            1344            1765     26.6159E-03     25.3465E-03
            1346            1766     196.226E-03     200.859E-03
            1347            1766     196.226E-03     200.859E-03
            1362            1766     196.226E-03     200.859E-03
            1363            1766     196.226E-03     200.859E-03
            1348            1767     181.253E-03     186.251E-03
            1363            1767     181.253E-03     186.251E-03
            1364            1767     181.253E-03     186.251E-03
            1347            1767     181.253E-03     186.251E-03
            1348            1768     165.072E-03     170.529E-03
            1349            1768     165.072E-03     170.529E-03
            1364            1768     165.072E-03     170.529E-03
            1365            1768     165.072E-03     170.529E-03
            1349            1769     149.710E-03     155.155E-03
            1365            1769     149.710E-03     155.155E-03
            1350            1769     149.710E-03     155.155E-03
            1366            1769     149.710E-03     155.155E-03
            1351            1770     135.819E-03     140.804E-03
            1367            1770     135.819E-03     140.804E-03
            1366            1770     135.819E-03     140.804E-03
            1350            1770     135.819E-03     140.804E-03
            1352            1771     122.237E-03     126.861E-03
            1367            1771     122.237E-03     126.861E-03
            1368            1771     122.237E-03     126.861E-03
            1351            1771     122.237E-03     126.861E-03
            1352            1772     108.941E-03     113.377E-03
            1369            1772     108.941E-03     113.377E-03
            1353            1772     108.941E-03     113.377E-03
            1368            1772     108.941E-03     113.377E-03
            1353            1773     95.8429E-03     100.133E-03
            1354            1773     95.8429E-03     100.133E-03
            1369            1773     95.8429E-03     100.133E-03
            1370            1773     95.8429E-03     100.133E-03
            1370            1774     82.9042E-03     87.1137E-03
            1354            1774     82.9042E-03     87.1137E-03
            1371            1774     82.9042E-03     87.1137E-03
            1355            1774     82.9042E-03     87.1137E-03
            1355            1775     70.1852E-03     74.3109E-03
            1356            1775     70.1852E-03     74.3109E-03
            1371            1775     70.1852E-03     74.3109E-03
            1372            1775     70.1852E-03     74.3109E-03
            1356            1776     57.7015E-03     61.7525E-03
            1357            1776     57.7015E-03     61.7525E-03
            1372            1776     57.7015E-03     61.7525E-03
            1373            1776     57.7015E-03     61.7525E-03
            1357            1777     45.6696E-03     49.6290E-03
            1358            1777     45.6696E-03     49.6290E-03
            1373            1777     45.6696E-03     49.6290E-03
            1374            1777     45.6696E-03     49.6290E-03
            1375            1778     34.5366E-03     37.9813E-03
            1358            1778     34.5366E-03     37.9813E-03
            1359            1778     34.5366E-03     37.9813E-03
            1374            1778     34.5366E-03     37.9813E-03
            1375            1779     25.2620E-03     27.0705E-03
            1360            1779     25.2620E-03     27.0705E-03
            1359            1779     25.2620E-03     27.0705E-03
            1376            1779     25.2620E-03     27.0705E-03
            1376            1780     20.3933E-03     18.9138E-03
            1377            1780     20.3933E-03     18.9138E-03
            1360            1780     20.3933E-03     18.9138E-03
            1361            1780     20.3933E-03     18.9138E-03
            1379            1781     207.946E-03     210.388E-03
            1362            1781     207.946E-03     210.388E-03
            1378            1781     207.946E-03     210.388E-03
            1363            1781     207.946E-03     210.388E-03
            1363            1782     183.917E-03     189.244E-03
            1380            1782     183.917E-03     189.244E-03
            1364            1782     183.917E-03     189.244E-03
            1379            1782     183.917E-03     189.244E-03
            1381            1783     162.376E-03     169.273E-03
            1380            1783     162.376E-03     169.273E-03
            1364            1783     162.376E-03     169.273E-03
            1365            1783     162.376E-03     169.273E-03
            1382            1784     146.526E-03     153.438E-03
            1381            1784     146.526E-03     153.438E-03
            1365            1784     146.526E-03     153.438E-03
            1366            1784     146.526E-03     153.438E-03
            1383            1785     132.446E-03     139.106E-03
            1366            1785     132.446E-03     139.106E-03
            1367            1785     132.446E-03     139.106E-03
            1382            1785     132.446E-03     139.106E-03
            1383            1786     119.017E-03     125.574E-03
            1384            1786     119.017E-03     125.574E-03
            1367            1786     119.017E-03     125.574E-03
            1368            1786     119.017E-03     125.574E-03
            1368            1787     105.935E-03     112.364E-03
            1384            1787     105.935E-03     112.364E-03
            1369            1787     105.935E-03     112.364E-03
            1385            1787     105.935E-03     112.364E-03
            1369            1788     92.9344E-03     99.3260E-03
            1386            1788     92.9344E-03     99.3260E-03
            1385            1788     92.9344E-03     99.3260E-03
            1370            1788     92.9344E-03     99.3260E-03
            1370            1789     80.0420E-03     86.3807E-03
            1387            1789     80.0420E-03     86.3807E-03
            1371            1789     80.0420E-03     86.3807E-03
            1386            1789     80.0420E-03     86.3807E-03
            1371            1790     67.2267E-03     73.5038E-03
            1387            1790     67.2267E-03     73.5038E-03
            1372            1790     67.2267E-03     73.5038E-03
            1388            1790     67.2267E-03     73.5038E-03
            1373            1791     54.5575E-03     60.7250E-03
            1372            1791     54.5575E-03     60.7250E-03
            1389            1791     54.5575E-03     60.7250E-03
            1388            1791     54.5575E-03     60.7250E-03
            1390            1792     42.1269E-03     48.0508E-03
            1374            1792     42.1269E-03     48.0508E-03
            1389            1792     42.1269E-03     48.0508E-03
            1373            1792     42.1269E-03     48.0508E-03
            1391            1793     30.3641E-03     35.4235E-03
            1375            1793     30.3641E-03     35.4235E-03
            1390            1793     30.3641E-03     35.4235E-03
            1374            1793     30.3641E-03     35.4235E-03
            1375            1794     20.1100E-03     23.0086E-03
            1391            1794     20.1100E-03     23.0086E-03
            1376            1794     20.1100E-03     23.0086E-03
            1392            1794     20.1100E-03     23.0086E-03
            1376            1795     15.0749E-03     12.8740E-03
            1377            1795     15.0749E-03     12.8740E-03
            1393            1795     15.0749E-03     12.8740E-03
            1392            1795     15.0749E-03     12.8740E-03
            1394            1796     210.916E-03     216.474E-03
            1378            1796     210.916E-03     216.474E-03
            1395            1796     210.916E-03     216.474E-03
            1379            1796     210.916E-03     216.474E-03
            1395            1797     178.088E-03     185.502E-03
            1379            1797     178.088E-03     185.502E-03
            1396            1797     178.088E-03     185.502E-03
            1380            1797     178.088E-03     185.502E-03
            1380            1798     157.344E-03     164.891E-03
            1381            1798     157.344E-03     164.891E-03
            1396            1798     157.344E-03     164.891E-03
            1397            1798     157.344E-03     164.891E-03
            1382            1799     141.895E-03     149.733E-03
            1381            1799     141.895E-03     149.733E-03
            1397            1799     141.895E-03     149.733E-03
            1398            1799     141.895E-03     149.733E-03
            1398            1800     128.000E-03     136.150E-03
            1383            1800     128.000E-03     136.150E-03
            1399            1800     128.000E-03     136.150E-03
            1382            1800     128.000E-03     136.150E-03
            1399            1801     115.075E-03     123.400E-03
            1400            1801     115.075E-03     123.400E-03
            1383            1801     115.075E-03     123.400E-03
            1384            1801     115.075E-03     123.400E-03
            1384            1802     102.329E-03     110.786E-03
            1401            1802     102.329E-03     110.786E-03
            1400            1802     102.329E-03     110.786E-03
            1385            1802     102.329E-03     110.786E-03
            1386            1803     89.6960E-03     98.2169E-03
            1401            1803     89.6960E-03     98.2169E-03
            1402            1803     89.6960E-03     98.2169E-03
            1385            1803     89.6960E-03     98.2169E-03
            1403            1804     77.0390E-03     85.5871E-03
            1402            1804     77.0390E-03     85.5871E-03
            1386            1804     77.0390E-03     85.5871E-03
            1387            1804     77.0390E-03     85.5871E-03
            1388            1805     64.3639E-03     72.9073E-03
            1387            1805     64.3639E-03     72.9073E-03
            1404            1805     64.3639E-03     72.9073E-03
            1403            1805     64.3639E-03     72.9073E-03
            1404            1806     51.7109E-03     60.1684E-03
            1388            1806     51.7109E-03     60.1684E-03
            1405            1806     51.7109E-03     60.1684E-03
            1389            1806     51.7109E-03     60.1684E-03
            1406            1807     39.1176E-03     47.2698E-03
            1390            1807     39.1176E-03     47.2698E-03
            1405            1807     39.1176E-03     47.2698E-03
            1389            1807     39.1176E-03     47.2698E-03
            1407            1808     26.6850E-03     34.2305E-03
            1406            1808     26.6850E-03     34.2305E-03
            1391            1808     26.6850E-03     34.2305E-03
            1390            1808     26.6850E-03     34.2305E-03
            1407            1809     15.3207E-03     20.7073E-03
            1392            1809     15.3207E-03     20.7073E-03
            1391            1809     15.3207E-03     20.7073E-03
            1408            1809     15.3207E-03     20.7073E-03
            1409            1810     10.9444E-03     9.93482E-03
            1408            1810     10.9444E-03     9.93482E-03
            1392            1810     10.9444E-03     9.93482E-03
            1393            1810     10.9444E-03     9.93482E-03
            1411            1811     212.069E-03     215.674E-03
            1394            1811     212.069E-03     215.674E-03
            1410            1811     212.069E-03     215.674E-03
            1395            1811     212.069E-03     215.674E-03
            1411            1812     194.179E-03     194.909E-03
            1412            1812     194.179E-03     194.909E-03
            1396            1812     194.179E-03     194.909E-03
            1395            1812     194.179E-03     194.909E-03
            1396            1813     180.428E-03     181.815E-03
            1397            1813     180.428E-03     181.815E-03
            1412            1813     180.428E-03     181.815E-03
            1413            1813     180.428E-03     181.815E-03
            1398            1814     166.848E-03     169.281E-03
            1413            1814     166.848E-03     169.281E-03
            1414            1814     166.848E-03     169.281E-03
            1397            1814     166.848E-03     169.281E-03
            1414            1815     153.532E-03     156.634E-03
            1415            1815     153.532E-03     156.634E-03
            1399            1815     153.532E-03     156.634E-03
            1398            1815     153.532E-03     156.634E-03
            1399            1816     139.959E-03     143.666E-03
            1415            1816     139.959E-03     143.666E-03
            1416            1816     139.959E-03     143.666E-03
            1400            1816     139.959E-03     143.666E-03
            1416            1817     126.329E-03     130.277E-03
            1417            1817     126.329E-03     130.277E-03
            1401            1817     126.329E-03     130.277E-03
            1400            1817     126.329E-03     130.277E-03
            1401            1818     112.507E-03     116.675E-03
            1417            1818     112.507E-03     116.675E-03
            1418            1818     112.507E-03     116.675E-03
            1402            1818     112.507E-03     116.675E-03
            1403            1819     98.6868E-03     102.951E-03
            1418            1819     98.6868E-03     102.951E-03
            1419            1819     98.6868E-03     102.951E-03
            1402            1819     98.6868E-03     102.951E-03
            1420            1820     84.8788E-03     89.2225E-03
            1403            1820     84.8788E-03     89.2225E-03
            1419            1820     84.8788E-03     89.2225E-03
            1404            1820     84.8788E-03     89.2225E-03
            1405            1821     71.2913E-03     75.6428E-03
            1404            1821     71.2913E-03     75.6428E-03
            1420            1821     71.2913E-03     75.6428E-03
            1421            1821     71.2913E-03     75.6428E-03
            1422            1822     58.0812E-03     62.3585E-03
            1406            1822     58.0812E-03     62.3585E-03
            1405            1822     58.0812E-03     62.3585E-03
            1421            1822     58.0812E-03     62.3585E-03
            1406            1823     45.5439E-03     49.5609E-03
            1422            1823     45.5439E-03     49.5609E-03
            1407            1823     45.5439E-03     49.5609E-03
            1423            1823     45.5439E-03     49.5609E-03
            1424            1824     34.1297E-03     37.9851E-03
            1408            1824     34.1297E-03     37.9851E-03
            1423            1824     34.1297E-03     37.9851E-03
            1407            1824     34.1297E-03     37.9851E-03
            1408            1825     26.9794E-03     31.1986E-03
            1409            1825     26.9794E-03     31.1986E-03
            1425            1825     26.9794E-03     31.1986E-03
            1424            1825     26.9794E-03     31.1986E-03
            1410            1826     226.295E-03     223.614E-03
            1411            1826     226.295E-03     223.614E-03
            1427            1826     226.295E-03     223.614E-03
            1426            1826     226.295E-03     223.614E-03
            1412            1827     221.079E-03     219.125E-03
            1427            1827     221.079E-03     219.125E-03
            1428            1827     221.079E-03     219.125E-03
            1411            1827     221.079E-03     219.125E-03
            1412            1828     211.362E-03     209.251E-03
            1428            1828     211.362E-03     209.251E-03
            1429            1828     211.362E-03     209.251E-03
            1413            1828     211.362E-03     209.251E-03
            1429            1829     198.354E-03     196.815E-03
            1414            1829     198.354E-03     196.815E-03
            1430            1829     198.354E-03     196.815E-03
            1413            1829     198.354E-03     196.815E-03
            1415            1830     183.772E-03     182.689E-03
            1431            1830     183.772E-03     182.689E-03
            1430            1830     183.772E-03     182.689E-03
            1414            1830     183.772E-03     182.689E-03
            1415            1831     168.317E-03     167.532E-03
            1432            1831     168.317E-03     167.532E-03
            1431            1831     168.317E-03     167.532E-03
            1416            1831     168.317E-03     167.532E-03
            1417            1832     152.433E-03     151.936E-03
            1416            1832     152.433E-03     151.936E-03
            1432            1832     152.433E-03     151.936E-03
            1433            1832     152.433E-03     151.936E-03
            1433            1833     136.482E-03     136.089E-03
            1434            1833     136.482E-03     136.089E-03
            1417            1833     136.482E-03     136.089E-03
            1418            1833     136.482E-03     136.089E-03
            1434            1834     120.542E-03     120.268E-03
            1435            1834     120.542E-03     120.268E-03
            1419            1834     120.542E-03     120.268E-03
            1418            1834     120.542E-03     120.268E-03
            1419            1835     104.851E-03     104.618E-03
            1435            1835     104.851E-03     104.618E-03
            1436            1835     104.851E-03     104.618E-03
            1420            1835     104.851E-03     104.618E-03
            1436            1836     89.5641E-03     89.4080E-03
            1437            1836     89.5641E-03     89.4080E-03
            1421            1836     89.5641E-03     89.4080E-03
            1420            1836     89.5641E-03     89.4080E-03
            1437            1837     75.0862E-03     75.0073E-03
            1421            1837     75.0862E-03     75.0073E-03
            1422            1837     75.0862E-03     75.0073E-03
            1438            1837     75.0862E-03     75.0073E-03
            1439            1838     61.7983E-03     62.1424E-03
            1422            1838     61.7983E-03     62.1424E-03
            1438            1838     61.7983E-03     62.1424E-03
            1423            1838     61.7983E-03     62.1424E-03
            1423            1839     50.3383E-03     52.5733E-03
            1439            1839     50.3383E-03     52.5733E-03
            1440            1839     50.3383E-03     52.5733E-03
            1424            1839     50.3383E-03     52.5733E-03
            1440            1840     42.8709E-03     48.7995E-03
            1425            1840     42.8709E-03     48.7995E-03
            1441            1840     42.8709E-03     48.7995E-03
            1424            1840     42.8709E-03     48.7995E-03
            1443            1841     242.996E-03     246.420E-03
            1427            1841     242.996E-03     246.420E-03
            1426            1841     242.996E-03     246.420E-03
            1442            1841     242.996E-03     246.420E-03
            1443            1842     233.159E-03     236.776E-03
            1428            1842     233.159E-03     236.776E-03
            1427            1842     233.159E-03     236.776E-03
            1444            1842     233.159E-03     236.776E-03
            1445            1843     220.260E-03     223.208E-03
            1428            1843     220.260E-03     223.208E-03
            1429            1843     220.260E-03     223.208E-03
            1444            1843     220.260E-03     223.208E-03
            1429            1844     204.743E-03     206.838E-03
            1446            1844     204.743E-03     206.838E-03
            1445            1844     204.743E-03     206.838E-03
            1430            1844     204.743E-03     206.838E-03
            1447            1845     187.718E-03     189.427E-03
            1430            1845     187.718E-03     189.427E-03
            1431            1845     187.718E-03     189.427E-03
            1446            1845     187.718E-03     189.427E-03
            1448            1846     170.192E-03     171.843E-03
            1431            1846     170.192E-03     171.843E-03
            1432            1846     170.192E-03     171.843E-03
            1447            1846     170.192E-03     171.843E-03
            1449            1847     152.740E-03     154.291E-03
            1448            1847     152.740E-03     154.291E-03
            1433            1847     152.740E-03     154.291E-03
            1432            1847     152.740E-03     154.291E-03
            1450            1848     135.350E-03     136.902E-03
            1434            1848     135.350E-03     136.902E-03
            1449            1848     135.350E-03     136.902E-03
            1433            1848     135.350E-03     136.902E-03
            1434            1849     118.190E-03     119.706E-03
            1451            1849     118.190E-03     119.706E-03
            1435            1849     118.190E-03     119.706E-03
            1450            1849     118.190E-03     119.706E-03
            1436            1850     101.308E-03     102.795E-03
            1451            1850     101.308E-03     102.795E-03
            1435            1850     101.308E-03     102.795E-03
            1452            1850     101.308E-03     102.795E-03
            1452            1851     84.8122E-03     86.3178E-03
            1437            1851     84.8122E-03     86.3178E-03
            1436            1851     84.8122E-03     86.3178E-03
            1453            1851     84.8122E-03     86.3178E-03
            1454            1852     68.9528E-03     70.6547E-03
            1453            1852     68.9528E-03     70.6547E-03
            1438            1852     68.9528E-03     70.6547E-03
            1437            1852     68.9528E-03     70.6547E-03
            1454            1853     54.1666E-03     56.5596E-03
            1439            1853     54.1666E-03     56.5596E-03
            1455            1853     54.1666E-03     56.5596E-03
            1438            1853     54.1666E-03     56.5596E-03
            1455            1854     41.9234E-03     45.8179E-03
            1439            1854     41.9234E-03     45.8179E-03
            1440            1854     41.9234E-03     45.8179E-03
            1456            1854     41.9234E-03     45.8179E-03
            1440            1855     36.4987E-03     38.4248E-03
            1456            1855     36.4987E-03     38.4248E-03
            1441            1855     36.4987E-03     38.4248E-03
            1457            1855     36.4987E-03     38.4248E-03
            1442            1856     257.980E-03     262.860E-03
            1458            1856     257.980E-03     262.860E-03
            1443            1856     257.980E-03     262.860E-03
            1459            1856     257.980E-03     262.860E-03
            1459            1857     242.736E-03     249.402E-03
            1460            1857     242.736E-03     249.402E-03
            1444            1857     242.736E-03     249.402E-03
            1443            1857     242.736E-03     249.402E-03
            1445            1858     226.332E-03     232.202E-03
            1444            1858     226.332E-03     232.202E-03
            1460            1858     226.332E-03     232.202E-03
            1461            1858     226.332E-03     232.202E-03
            1446            1859     207.910E-03     212.922E-03
            1461            1859     207.910E-03     212.922E-03
            1462            1859     207.910E-03     212.922E-03
            1445            1859     207.910E-03     212.922E-03
            1462            1860     189.013E-03     193.455E-03
            1463            1860     189.013E-03     193.455E-03
            1447            1860     189.013E-03     193.455E-03
            1446            1860     189.013E-03     193.455E-03
            1447            1861     170.464E-03     174.435E-03
            1464            1861     170.464E-03     174.435E-03
            1448            1861     170.464E-03     174.435E-03
            1463            1861     170.464E-03     174.435E-03
            1448            1862     152.031E-03     155.760E-03
            1464            1862     152.031E-03     155.760E-03
            1449            1862     152.031E-03     155.760E-03
            1465            1862     152.031E-03     155.760E-03
            1466            1863     133.861E-03     137.437E-03
            1450            1863     133.861E-03     137.437E-03
            1465            1863     133.861E-03     137.437E-03
            1449            1863     133.861E-03     137.437E-03
            1466            1864     115.918E-03     119.391E-03
            1467            1864     115.918E-03     119.391E-03
            1451            1864     115.918E-03     119.391E-03
            1450            1864     115.918E-03     119.391E-03
            1452            1865     98.2111E-03     101.627E-03
            1467            1865     98.2111E-03     101.627E-03
            1468            1865     98.2111E-03     101.627E-03
            1451            1865     98.2111E-03     101.627E-03
            1468            1866     80.8476E-03     84.2558E-03
            1469            1866     80.8476E-03     84.2558E-03
            1452            1866     80.8476E-03     84.2558E-03
            1453            1866     80.8476E-03     84.2558E-03
            1453            1867     63.9025E-03     67.4596E-03
            1454            1867     63.9025E-03     67.4596E-03
            1469            1867     63.9025E-03     67.4596E-03
            1470            1867     63.9025E-03     67.4596E-03
            1454            1868     47.8453E-03     52.0232E-03
            1455            1868     47.8453E-03     52.0232E-03
            1471            1868     47.8453E-03     52.0232E-03
            1470            1868     47.8453E-03     52.0232E-03
            1471            1869     34.9991E-03     38.3333E-03
            1472            1869     34.9991E-03     38.3333E-03
            1455            1869     34.9991E-03     38.3333E-03
            1456            1869     34.9991E-03     38.3333E-03
            1473            1870     28.3495E-03     27.5568E-03
            1472            1870     28.3495E-03     27.5568E-03
            1457            1870     28.3495E-03     27.5568E-03
            1456            1870     28.3495E-03     27.5568E-03
            1459            1871     270.011E-03     276.213E-03
            1474            1871     270.011E-03     276.213E-03
            1475            1871     270.011E-03     276.213E-03
            1458            1871     270.011E-03     276.213E-03
            1476            1872     250.181E-03     257.040E-03
            1475            1872     250.181E-03     257.040E-03
            1460            1872     250.181E-03     257.040E-03
            1459            1872     250.181E-03     257.040E-03
            1461            1873     228.195E-03     235.478E-03
            1477            1873     228.195E-03     235.478E-03
            1476            1873     228.195E-03     235.478E-03
            1460            1873     228.195E-03     235.478E-03
            1461            1874     206.969E-03     214.141E-03
            1462            1874     206.969E-03     214.141E-03
            1478            1874     206.969E-03     214.141E-03
            1477            1874     206.969E-03     214.141E-03
            1463            1875     187.549E-03     194.099E-03
            1478            1875     187.549E-03     194.099E-03
            1479            1875     187.549E-03     194.099E-03
            1462            1875     187.549E-03     194.099E-03
            1464            1876     168.587E-03     174.647E-03
            1479            1876     168.587E-03     174.647E-03
            1463            1876     168.587E-03     174.647E-03
            1480            1876     168.587E-03     174.647E-03
            1465            1877     149.971E-03     155.780E-03
            1481            1877     149.971E-03     155.780E-03
            1480            1877     149.971E-03     155.780E-03
            1464            1877     149.971E-03     155.780E-03
            1465            1878     131.580E-03     137.205E-03
            1482            1878     131.580E-03     137.205E-03
            1481            1878     131.580E-03     137.205E-03
            1466            1878     131.580E-03     137.205E-03
            1482            1879     113.341E-03     118.874E-03
            1483            1879     113.341E-03     118.874E-03
            1466            1879     113.341E-03     118.874E-03
            1467            1879     113.341E-03     118.874E-03
            1468            1880     95.2865E-03     100.743E-03
            1483            1880     95.2865E-03     100.743E-03
            1484            1880     95.2865E-03     100.743E-03
            1467            1880     95.2865E-03     100.743E-03
            1484            1881     77.3940E-03     82.8208E-03
            1485            1881     77.3940E-03     82.8208E-03
            1468            1881     77.3940E-03     82.8208E-03
            1469            1881     77.3940E-03     82.8208E-03
            1470            1882     59.8135E-03     65.2707E-03
            1485            1882     59.8135E-03     65.2707E-03
            1486            1882     59.8135E-03     65.2707E-03
            1469            1882     59.8135E-03     65.2707E-03
            1486            1883     42.8968E-03     48.1908E-03
            1487            1883     42.8968E-03     48.1908E-03
            1470            1883     42.8968E-03     48.1908E-03
            1471            1883     42.8968E-03     48.1908E-03
            1487            1884     27.9266E-03     31.9354E-03
            1471            1884     27.9266E-03     31.9354E-03
            1488            1884     27.9266E-03     31.9354E-03
            1472            1884     27.9266E-03     31.9354E-03
            1488            1885     20.0826E-03     19.2261E-03
            1473            1885     20.0826E-03     19.2261E-03
            1489            1885     20.0826E-03     19.2261E-03
            1472            1885     20.0826E-03     19.2261E-03
            1474            1886     280.960E-03     284.404E-03
            1475            1886     280.960E-03     284.404E-03
            1490            1886     280.960E-03     284.404E-03
            1491            1886     280.960E-03     284.404E-03
            1475            1887     251.544E-03     258.323E-03
            1492            1887     251.544E-03     258.323E-03
            1476            1887     251.544E-03     258.323E-03
            1491            1887     251.544E-03     258.323E-03
            1493            1888     224.100E-03     232.591E-03
            1477            1888     224.100E-03     232.591E-03
            1476            1888     224.100E-03     232.591E-03
            1492            1888     224.100E-03     232.591E-03
            1494            1889     202.890E-03     211.250E-03
            1478            1889     202.890E-03     211.250E-03
            1493            1889     202.890E-03     211.250E-03
            1477            1889     202.890E-03     211.250E-03
            1479            1890     183.532E-03     191.551E-03
            1494            1890     183.532E-03     191.551E-03
            1478            1890     183.532E-03     191.551E-03
            1495            1890     183.532E-03     191.551E-03
            1495            1891     164.903E-03     172.793E-03
            1479            1891     164.903E-03     172.793E-03
            1496            1891     164.903E-03     172.793E-03
            1480            1891     164.903E-03     172.793E-03
            1496            1892     146.669E-03     154.401E-03
            1481            1892     146.669E-03     154.401E-03
            1480            1892     146.669E-03     154.401E-03
            1497            1892     146.669E-03     154.401E-03
            1482            1893     128.508E-03     136.206E-03
            1497            1893     128.508E-03     136.206E-03
            1481            1893     128.508E-03     136.206E-03
            1498            1893     128.508E-03     136.206E-03
            1482            1894     110.444E-03     118.092E-03
            1499            1894     110.444E-03     118.092E-03
            1483            1894     110.444E-03     118.092E-03
            1498            1894     110.444E-03     118.092E-03
            1484            1895     92.4188E-03     100.020E-03
            1500            1895     92.4188E-03     100.020E-03
            1483            1895     92.4188E-03     100.020E-03
            1499            1895     92.4188E-03     100.020E-03
            1500            1896     74.4576E-03     81.9884E-03
            1501            1896     74.4576E-03     81.9884E-03
            1485            1896     74.4576E-03     81.9884E-03
            1484            1896     74.4576E-03     81.9884E-03
            1486            1897     56.5925E-03     64.0055E-03
            1502            1897     56.5925E-03     64.0055E-03
            1485            1897     56.5925E-03     64.0055E-03
            1501            1897     56.5925E-03     64.0055E-03
            1503            1898     39.1268E-03     45.8588E-03
            1487            1898     39.1268E-03     45.8588E-03
            1502            1898     39.1268E-03     45.8588E-03
            1486            1898     39.1268E-03     45.8588E-03
            1488            1899     22.4731E-03     27.7115E-03
            1503            1899     22.4731E-03     27.7115E-03
            1504            1899     22.4731E-03     27.7115E-03
            1487            1899     22.4731E-03     27.7115E-03
            1488            1900     14.4228E-03     12.5441E-03
            1505            1900     14.4228E-03     12.5441E-03
            1489            1900     14.4228E-03     12.5441E-03
            1504            1900     14.4228E-03     12.5441E-03
            1491            1901     281.578E-03     287.539E-03
            1507            1901     281.578E-03     287.539E-03
            1506            1901     281.578E-03     287.539E-03
            1490            1901     281.578E-03     287.539E-03
            1492            1902     242.824E-03     251.078E-03
            1491            1902     242.824E-03     251.078E-03
            1508            1902     242.824E-03     251.078E-03
            1507            1902     242.824E-03     251.078E-03
            1493            1903     216.959E-03     225.343E-03
            1492            1903     216.959E-03     225.343E-03
            1508            1903     216.959E-03     225.343E-03
            1509            1903     216.959E-03     225.343E-03
            1510            1904     196.645E-03     205.456E-03
            1509            1904     196.645E-03     205.456E-03
            1493            1904     196.645E-03     205.456E-03
            1494            1904     196.645E-03     205.456E-03
            1511            1905     177.900E-03     187.143E-03
            1510            1905     177.900E-03     187.143E-03
            1494            1905     177.900E-03     187.143E-03
            1495            1905     177.900E-03     187.143E-03
            1511            1906     160.147E-03     169.642E-03
            1495            1906     160.147E-03     169.642E-03
            1512            1906     160.147E-03     169.642E-03
            1496            1906     160.147E-03     169.642E-03
            1512            1907     142.541E-03     152.233E-03
            1496            1907     142.541E-03     152.233E-03
            1497            1907     142.541E-03     152.233E-03
            1513            1907     142.541E-03     152.233E-03
            1514            1908     125.035E-03     134.813E-03
            1497            1908     125.035E-03     134.813E-03
            1513            1908     125.035E-03     134.813E-03
            1498            1908     125.035E-03     134.813E-03
            1498            1909     107.463E-03     117.290E-03
            1515            1909     107.463E-03     117.290E-03
            1499            1909     107.463E-03     117.290E-03
            1514            1909     107.463E-03     117.290E-03
            1499            1910     89.8355E-03     99.6670E-03
            1515            1910     89.8355E-03     99.6670E-03
            1516            1910     89.8355E-03     99.6670E-03
            1500            1910     89.8355E-03     99.6670E-03
            1500            1911     72.1888E-03     81.9444E-03
            1516            1911     72.1888E-03     81.9444E-03
            1517            1911     72.1888E-03     81.9444E-03
            1501            1911     72.1888E-03     81.9444E-03
            1517            1912     54.5349E-03     63.9789E-03
            1518            1912     54.5349E-03     63.9789E-03
            1502            1912     54.5349E-03     63.9789E-03
            1501            1912     54.5349E-03     63.9789E-03
            1502            1913     36.9300E-03     45.7931E-03
            1518            1913     36.9300E-03     45.7931E-03
            1503            1913     36.9300E-03     45.7931E-03
            1519            1913     36.9300E-03     45.7931E-03
            1519            1914     19.8168E-03     26.7083E-03
            1520            1914     19.8168E-03     26.7083E-03
            1504            1914     19.8168E-03     26.7083E-03
            1503            1914     19.8168E-03     26.7083E-03
            1521            1915     11.9809E-03     12.5073E-03
            1505            1915     11.9809E-03     12.5073E-03
            1520            1915     11.9809E-03     12.5073E-03
            1504            1915     11.9809E-03     12.5073E-03
            1507            1916     280.581E-03     285.636E-03
            1523            1916     280.581E-03     285.636E-03
            1506            1916     280.581E-03     285.636E-03
            1522            1916     280.581E-03     285.636E-03
            1508            1917     257.118E-03     258.518E-03
            1524            1917     257.118E-03     258.518E-03
            1507            1917     257.118E-03     258.518E-03
            1523            1917     257.118E-03     258.518E-03
            1508            1918     238.757E-03     240.833E-03
            1524            1918     238.757E-03     240.833E-03
            1525            1918     238.757E-03     240.833E-03
            1509            1918     238.757E-03     240.833E-03
            1526            1919     220.155E-03     223.550E-03
            1525            1919     220.155E-03     223.550E-03
            1510            1919     220.155E-03     223.550E-03
            1509            1919     220.155E-03     223.550E-03
            1526            1920     202.064E-03     206.197E-03
            1527            1920     202.064E-03     206.197E-03
            1511            1920     202.064E-03     206.197E-03
            1510            1920     202.064E-03     206.197E-03
            1512            1921     183.609E-03     188.350E-03
            1528            1921     183.609E-03     188.350E-03
            1527            1921     183.609E-03     188.350E-03
            1511            1921     183.609E-03     188.350E-03
            1512            1922     165.152E-03     170.111E-03
            1528            1922     165.152E-03     170.111E-03
            1513            1922     165.152E-03     170.111E-03
            1529            1922     165.152E-03     170.111E-03
            1530            1923     146.502E-03     151.666E-03
            1514            1923     146.502E-03     151.666E-03
            1529            1923     146.502E-03     151.666E-03
            1513            1923     146.502E-03     151.666E-03
            1530            1924     127.809E-03     133.020E-03
            1531            1924     127.809E-03     133.020E-03
            1515            1924     127.809E-03     133.020E-03
            1514            1924     127.809E-03     133.020E-03
            1531            1925     109.112E-03     114.416E-03
            1516            1925     109.112E-03     114.416E-03
            1532            1925     109.112E-03     114.416E-03
            1515            1925     109.112E-03     114.416E-03
            1533            1926     90.5814E-03     95.8696E-03
            1516            1926     90.5814E-03     95.8696E-03
            1517            1926     90.5814E-03     95.8696E-03
            1532            1926     90.5814E-03     95.8696E-03
            1533            1927     72.4818E-03     77.6719E-03
            1517            1927     72.4818E-03     77.6719E-03
            1534            1927     72.4818E-03     77.6719E-03
            1518            1927     72.4818E-03     77.6719E-03
            1518            1928     55.1481E-03     59.9121E-03
            1519            1928     55.1481E-03     59.9121E-03
            1534            1928     55.1481E-03     59.9121E-03
            1535            1928     55.1481E-03     59.9121E-03
            1535            1929     39.1229E-03     43.6107E-03
            1519            1929     39.1229E-03     43.6107E-03
            1520            1929     39.1229E-03     43.6107E-03
            1536            1929     39.1229E-03     43.6107E-03
            1536            1930     28.3441E-03     34.6018E-03
            1521            1930     28.3441E-03     34.6018E-03
            1520            1930     28.3441E-03     34.6018E-03
            1537            1930     28.3441E-03     34.6018E-03
            1539            1931     296.640E-03     295.265E-03
            1523            1931     296.640E-03     295.265E-03
            1538            1931     296.640E-03     295.265E-03
            1522            1931     296.640E-03     295.265E-03
            1524            1932     285.612E-03     284.798E-03
            1540            1932     285.612E-03     284.798E-03
            1523            1932     285.612E-03     284.798E-03
            1539            1932     285.612E-03     284.798E-03
            1524            1933     269.714E-03     269.250E-03
            1540            1933     269.714E-03     269.250E-03
            1525            1933     269.714E-03     269.250E-03
            1541            1933     269.714E-03     269.250E-03
            1525            1934     251.332E-03     251.128E-03
            1541            1934     251.332E-03     251.128E-03
            1542            1934     251.332E-03     251.128E-03
            1526            1934     251.332E-03     251.128E-03
            1527            1935     231.231E-03     231.400E-03
            1526            1935     231.231E-03     231.400E-03
            1543            1935     231.231E-03     231.400E-03
            1542            1935     231.231E-03     231.400E-03
            1528            1936     210.550E-03     211.039E-03
            1543            1936     210.550E-03     211.039E-03
            1544            1936     210.550E-03     211.039E-03
            1527            1936     210.550E-03     211.039E-03
            1545            1937     189.706E-03     190.275E-03
            1528            1937     189.706E-03     190.275E-03
            1544            1937     189.706E-03     190.275E-03
            1529            1937     189.706E-03     190.275E-03
            1529            1938     168.739E-03     169.418E-03
            1545            1938     168.739E-03     169.418E-03
            1546            1938     168.739E-03     169.418E-03
            1530            1938     168.739E-03     169.418E-03
            1531            1939     147.856E-03     148.547E-03
            1530            1939     147.856E-03     148.547E-03
            1547            1939     147.856E-03     148.547E-03
            1546            1939     147.856E-03     148.547E-03
            1532            1940     127.138E-03     127.868E-03
            1547            1940     127.138E-03     127.868E-03
            1548            1940     127.138E-03     127.868E-03
            1531            1940     127.138E-03     127.868E-03
            1548            1941     106.811E-03     107.544E-03
            1532            1941     106.811E-03     107.544E-03
            1549            1941     106.811E-03     107.544E-03
            1533            1941     106.811E-03     107.544E-03
            1533            1942     87.2088E-03     88.0014E-03
            1549            1942     87.2088E-03     88.0014E-03
            1550            1942     87.2088E-03     88.0014E-03
            1534            1942     87.2088E-03     88.0014E-03
            1535            1943     68.9839E-03     69.9914E-03
            1551            1943     68.9839E-03     69.9914E-03
            1550            1943     68.9839E-03     69.9914E-03
            1534            1943     68.9839E-03     69.9914E-03
            1551            1944     53.0614E-03     55.5154E-03
            1552            1944     53.0614E-03     55.5154E-03
            1535            1944     53.0614E-03     55.5154E-03
            1536            1944     53.0614E-03     55.5154E-03
            1537            1945     42.9646E-03     49.1368E-03
            1553            1945     42.9646E-03     49.1368E-03
            1552            1945     42.9646E-03     49.1368E-03
            1536            1945     42.9646E-03     49.1368E-03
            1555            1946     315.761E-03     319.974E-03
            1538            1946     315.761E-03     319.974E-03
            1554            1946     315.761E-03     319.974E-03
            1539            1946     315.761E-03     319.974E-03
            1555            1947     298.860E-03     304.962E-03
            1540            1947     298.860E-03     304.962E-03
            1556            1947     298.860E-03     304.962E-03
            1539            1947     298.860E-03     304.962E-03
            1541            1948     279.094E-03     283.773E-03
            1557            1948     279.094E-03     283.773E-03
            1540            1948     279.094E-03     283.773E-03
            1556            1948     279.094E-03     283.773E-03
            1541            1949     256.897E-03     260.687E-03
            1557            1949     256.897E-03     260.687E-03
            1558            1949     256.897E-03     260.687E-03
            1542            1949     256.897E-03     260.687E-03
            1542            1950     234.026E-03     237.513E-03
            1543            1950     234.026E-03     237.513E-03
            1559            1950     234.026E-03     237.513E-03
            1558            1950     234.026E-03     237.513E-03
            1543            1951     211.467E-03     214.727E-03
            1559            1951     211.467E-03     214.727E-03
            1560            1951     211.467E-03     214.727E-03
            1544            1951     211.467E-03     214.727E-03
            1545            1952     188.963E-03     192.181E-03
            1561            1952     188.963E-03     192.181E-03
            1544            1952     188.963E-03     192.181E-03
            1560            1952     188.963E-03     192.181E-03
            1561            1953     166.702E-03     169.865E-03
            1545            1953     166.702E-03     169.865E-03
            1562            1953     166.702E-03     169.865E-03
            1546            1953     166.702E-03     169.865E-03
            1547            1954     144.605E-03     147.744E-03
            1563            1954     144.605E-03     147.744E-03
            1546            1954     144.605E-03     147.744E-03
            1562            1954     144.605E-03     147.744E-03
            1547            1955     122.765E-03     125.818E-03
            1564            1955     122.765E-03     125.818E-03
            1548            1955     122.765E-03     125.818E-03
            1563            1955     122.765E-03     125.818E-03
            1565            1956     101.234E-03     104.225E-03
            1548            1956     101.234E-03     104.225E-03
            1549            1956     101.234E-03     104.225E-03
            1564            1956     101.234E-03     104.225E-03
            1565            1957     80.2243E-03     83.2166E-03
            1549            1957     80.2243E-03     83.2166E-03
            1566            1957     80.2243E-03     83.2166E-03
            1550            1957     80.2243E-03     83.2166E-03
            1566            1958     60.0672E-03     63.6157E-03
            1551            1958     60.0672E-03     63.6157E-03
            1550            1958     60.0672E-03     63.6157E-03
            1567            1958     60.0672E-03     63.6157E-03
            1552            1959     42.8327E-03     47.5619E-03
            1568            1959     42.8327E-03     47.5619E-03
            1551            1959     42.8327E-03     47.5619E-03
            1567            1959     42.8327E-03     47.5619E-03
            1569            1960     34.8509E-03     36.3202E-03
            1552            1960     34.8509E-03     36.3202E-03
            1553            1960     34.8509E-03     36.3202E-03
            1568            1960     34.8509E-03     36.3202E-03
            1554            1961     329.395E-03     338.119E-03
            1555            1961     329.395E-03     338.119E-03
            1571            1961     329.395E-03     338.119E-03
            1570            1961     329.395E-03     338.119E-03
            1556            1962     308.069E-03     316.173E-03
            1572            1962     308.069E-03     316.173E-03
            1555            1962     308.069E-03     316.173E-03
            1571            1962     308.069E-03     316.173E-03
            1557            1963     282.872E-03     290.679E-03
            1572            1963     282.872E-03     290.679E-03
            1573            1963     282.872E-03     290.679E-03
            1556            1963     282.872E-03     290.679E-03
            1574            1964     257.486E-03     264.769E-03
            1557            1964     257.486E-03     264.769E-03
            1573            1964     257.486E-03     264.769E-03
            1558            1964     257.486E-03     264.769E-03
            1574            1965     233.826E-03     240.270E-03
            1558            1965     233.826E-03     240.270E-03
            1559            1965     233.826E-03     240.270E-03
            1575            1965     233.826E-03     240.270E-03
            1575            1966     210.360E-03     216.407E-03
            1559            1966     210.360E-03     216.407E-03
            1560            1966     210.360E-03     216.407E-03
            1576            1966     210.360E-03     216.407E-03
            1561            1967     187.263E-03     193.127E-03
            1577            1967     187.263E-03     193.127E-03
            1576            1967     187.263E-03     193.127E-03
            1560            1967     187.263E-03     193.127E-03
            1561            1968     164.353E-03     170.135E-03
            1562            1968     164.353E-03     170.135E-03
            1577            1968     164.353E-03     170.135E-03
            1578            1968     164.353E-03     170.135E-03
            1562            1969     141.652E-03     147.359E-03
            1563            1969     141.652E-03     147.359E-03
            1578            1969     141.652E-03     147.359E-03
            1579            1969     141.652E-03     147.359E-03
            1563            1970     119.127E-03     124.756E-03
            1580            1970     119.127E-03     124.756E-03
            1564            1970     119.127E-03     124.756E-03
            1579            1970     119.127E-03     124.756E-03
            1580            1971     96.8248E-03     102.365E-03
            1564            1971     96.8248E-03     102.365E-03
            1565            1971     96.8248E-03     102.365E-03
            1581            1971     96.8248E-03     102.365E-03
            1582            1972     74.8359E-03     80.3396E-03
            1565            1972     74.8359E-03     80.3396E-03
            1566            1972     74.8359E-03     80.3396E-03
            1581            1972     74.8359E-03     80.3396E-03
            1582            1973     53.3142E-03     59.1899E-03
            1567            1973     53.3142E-03     59.1899E-03
            1566            1973     53.3142E-03     59.1899E-03
            1583            1973     53.3142E-03     59.1899E-03
            1568            1974     34.4281E-03     39.9122E-03
            1567            1974     34.4281E-03     39.9122E-03
            1584            1974     34.4281E-03     39.9122E-03
            1583            1974     34.4281E-03     39.9122E-03
            1584            1975     24.4743E-03     24.1136E-03
            1568            1975     24.4743E-03     24.1136E-03
            1569            1975     24.4743E-03     24.1136E-03
            1585            1975     24.4743E-03     24.1136E-03
            1586            1976     341.196E-03     345.608E-03
            1587            1976     341.196E-03     345.608E-03
            1570            1976     341.196E-03     345.608E-03
            1571            1976     341.196E-03     345.608E-03
            1571            1977     309.237E-03     318.123E-03
            1588            1977     309.237E-03     318.123E-03
            1587            1977     309.237E-03     318.123E-03
            1572            1977     309.237E-03     318.123E-03
            1588            1978     278.707E-03     288.660E-03
            1589            1978     278.707E-03     288.660E-03
            1572            1978     278.707E-03     288.660E-03
            1573            1978     278.707E-03     288.660E-03
            1590            1979     253.828E-03     263.182E-03
            1589            1979     253.828E-03     263.182E-03
            1573            1979     253.828E-03     263.182E-03
            1574            1979     253.828E-03     263.182E-03
            1591            1980     230.190E-03     239.022E-03
            1575            1980     230.190E-03     239.022E-03
            1590            1980     230.190E-03     239.022E-03
            1574            1980     230.190E-03     239.022E-03
            1576            1981     207.090E-03     215.692E-03
            1575            1981     207.090E-03     215.692E-03
            1592            1981     207.090E-03     215.692E-03
            1591            1981     207.090E-03     215.692E-03
            1592            1982     184.205E-03     192.688E-03
            1577            1982     184.205E-03     192.688E-03
            1576            1982     184.205E-03     192.688E-03
            1593            1982     184.205E-03     192.688E-03
            1578            1983     161.403E-03     169.846E-03
            1593            1983     161.403E-03     169.846E-03
            1594            1983     161.403E-03     169.846E-03
            1577            1983     161.403E-03     169.846E-03
            1595            1984     138.684E-03     147.091E-03
            1594            1984     138.684E-03     147.091E-03
            1579            1984     138.684E-03     147.091E-03
            1578            1984     138.684E-03     147.091E-03
            1579            1985     116.042E-03     124.391E-03
            1595            1985     116.042E-03     124.391E-03
            1580            1985     116.042E-03     124.391E-03
            1596            1985     116.042E-03     124.391E-03
            1581            1986     93.4801E-03     101.751E-03
            1597            1986     93.4801E-03     101.751E-03
            1596            1986     93.4801E-03     101.751E-03
            1580            1986     93.4801E-03     101.751E-03
            1597            1987     70.9971E-03     79.2265E-03
            1582            1987     70.9971E-03     79.2265E-03
            1598            1987     70.9971E-03     79.2265E-03
            1581            1987     70.9971E-03     79.2265E-03
            1582            1988     48.9442E-03     56.9188E-03
            1599            1988     48.9442E-03     56.9188E-03
            1583            1988     48.9442E-03     56.9188E-03
            1598            1988     48.9442E-03     56.9188E-03
            1600            1989     27.9147E-03     34.3326E-03
            1584            1989     27.9147E-03     34.3326E-03
            1599            1989     27.9147E-03     34.3326E-03
            1583            1989     27.9147E-03     34.3326E-03
            1585            1990     17.1952E-03     16.5844E-03
            1601            1990     17.1952E-03     16.5844E-03
            1584            1990     17.1952E-03     16.5844E-03
            1600            1990     17.1952E-03     16.5844E-03
            1602            1991     340.031E-03     347.033E-03
            1603            1991     340.031E-03     347.033E-03
            1586            1991     340.031E-03     347.033E-03
            1587            1991     340.031E-03     347.033E-03
            1588            1992     298.867E-03     308.580E-03
            1604            1992     298.867E-03     308.580E-03
            1603            1992     298.867E-03     308.580E-03
            1587            1992     298.867E-03     308.580E-03
            1588            1993     270.171E-03     280.364E-03
            1604            1993     270.171E-03     280.364E-03
            1605            1993     270.171E-03     280.364E-03
            1589            1993     270.171E-03     280.364E-03
            1605            1994     246.690E-03     257.172E-03
            1590            1994     246.690E-03     257.172E-03
            1589            1994     246.690E-03     257.172E-03
            1606            1994     246.690E-03     257.172E-03
            1606            1995     224.102E-03     234.956E-03
            1590            1995     224.102E-03     234.956E-03
            1591            1995     224.102E-03     234.956E-03
            1607            1995     224.102E-03     234.956E-03
            1592            1996     202.140E-03     213.167E-03
            1608            1996     202.140E-03     213.167E-03
            1591            1996     202.140E-03     213.167E-03
            1607            1996     202.140E-03     213.167E-03
            1593            1997     180.121E-03     191.223E-03
            1609            1997     180.121E-03     191.223E-03
            1592            1997     180.121E-03     191.223E-03
            1608            1997     180.121E-03     191.223E-03
            1594            1998     158.054E-03     169.198E-03
            1593            1998     158.054E-03     169.198E-03
            1609            1998     158.054E-03     169.198E-03
            1610            1998     158.054E-03     169.198E-03
            1595            1999     135.874E-03     147.018E-03
            1610            1999     135.874E-03     147.018E-03
            1611            1999     135.874E-03     147.018E-03
            1594            1999     135.874E-03     147.018E-03
            1612            2000     113.624E-03     124.775E-03
            1595            2000     113.624E-03     124.775E-03
            1596            2000     113.624E-03     124.775E-03
            1611            2000     113.624E-03     124.775E-03
            1596            2001     91.3396E-03     102.445E-03
            1613            2001     91.3396E-03     102.445E-03
            1612            2001     91.3396E-03     102.445E-03
            1597            2001     91.3396E-03     102.445E-03
            1597            2002     69.0638E-03     80.0501E-03
            1598            2002     69.0638E-03     80.0501E-03
            1613            2002     69.0638E-03     80.0501E-03
            1614            2002     69.0638E-03     80.0501E-03
            1598            2003     47.0315E-03     57.3404E-03
            1615            2003     47.0315E-03     57.3404E-03
            1599            2003     47.0315E-03     57.3404E-03
            1614            2003     47.0315E-03     57.3404E-03
            1600            2004     25.5267E-03     34.0508E-03
            1616            2004     25.5267E-03     34.0508E-03
            1615            2004     25.5267E-03     34.0508E-03
            1599            2004     25.5267E-03     34.0508E-03
            1601            2005     14.5601E-03     16.4746E-03
            1617            2005     14.5601E-03     16.4746E-03
            1600            2005     14.5601E-03     16.4746E-03
            1616            2005     14.5601E-03     16.4746E-03
            1689            2042     353.054E-03     355.257E-03
            1674            2042     353.054E-03     355.257E-03
            1690            2042     353.054E-03     355.257E-03
            1673            2042     353.054E-03     355.257E-03
            1690            2043     331.947E-03     334.432E-03
            1691            2043     331.947E-03     334.432E-03
            1674            2043     331.947E-03     334.432E-03
            1675            2043     331.947E-03     334.432E-03
            1692            2044     308.832E-03     312.034E-03
            1675            2044     308.832E-03     312.034E-03
            1676            2044     308.832E-03     312.034E-03
            1691            2044     308.832E-03     312.034E-03
            1676            2045     284.425E-03     288.519E-03
            1677            2045     284.425E-03     288.519E-03
            1693            2045     284.425E-03     288.519E-03
            1692            2045     284.425E-03     288.519E-03
            1677            2046     260.148E-03     264.912E-03
            1678            2046     260.148E-03     264.912E-03
            1694            2046     260.148E-03     264.912E-03
            1693            2046     260.148E-03     264.912E-03
            1694            2047     235.949E-03     241.439E-03
            1695            2047     235.949E-03     241.439E-03
            1678            2047     235.949E-03     241.439E-03
            1679            2047     235.949E-03     241.439E-03
            1680            2048     211.872E-03     217.886E-03
            1696            2048     211.872E-03     217.886E-03
            1695            2048     211.872E-03     217.886E-03
            1679            2048     211.872E-03     217.886E-03
            1681            2049     187.840E-03     194.520E-03
            1696            2049     187.840E-03     194.520E-03
            1697            2049     187.840E-03     194.520E-03
            1680            2049     187.840E-03     194.520E-03
            1697            2050     163.964E-03     171.184E-03
            1682            2050     163.964E-03     171.184E-03
            1698            2050     163.964E-03     171.184E-03
            1681            2050     163.964E-03     171.184E-03
            1699            2051     140.340E-03     148.163E-03
            1682            2051     140.340E-03     148.163E-03
            1683            2051     140.340E-03     148.163E-03
            1698            2051     140.340E-03     148.163E-03
            1684            2052     117.010E-03     125.363E-03
            1700            2052     117.010E-03     125.363E-03
            1683            2052     117.010E-03     125.363E-03
            1699            2052     117.010E-03     125.363E-03
            1700            2053     94.4605E-03     103.314E-03
            1701            2053     94.4605E-03     103.314E-03
            1685            2053     94.4605E-03     103.314E-03
            1684            2053     94.4605E-03     103.314E-03
            1702            2054     72.6500E-03     81.3755E-03
            1701            2054     72.6500E-03     81.3755E-03
            1686            2054     72.6500E-03     81.3755E-03
            1685            2054     72.6500E-03     81.3755E-03
            1703            2055     52.9299E-03     59.6380E-03
            1687            2055     52.9299E-03     59.6380E-03
            1686            2055     52.9299E-03     59.6380E-03
            1702            2055     52.9299E-03     59.6380E-03
            1704            2056     40.5626E-03     41.1419E-03
            1687            2056     40.5626E-03     41.1419E-03
            1703            2056     40.5626E-03     41.1419E-03
            1688            2056     40.5626E-03     41.1419E-03
            1706            2057     379.620E-03     381.284E-03
            1705            2057     379.620E-03     381.284E-03
            1689            2057     379.620E-03     381.284E-03
            1690            2057     379.620E-03     381.284E-03
            1707            2058     357.715E-03     359.648E-03
            1706            2058     357.715E-03     359.648E-03
            1691            2058     357.715E-03     359.648E-03
            1690            2058     357.715E-03     359.648E-03
            1692            2059     331.094E-03     334.339E-03
            1691            2059     331.094E-03     334.339E-03
            1708            2059     331.094E-03     334.339E-03
            1707            2059     331.094E-03     334.339E-03
            1709            2060     304.795E-03     308.855E-03
            1708            2060     304.795E-03     308.855E-03
            1693            2060     304.795E-03     308.855E-03
            1692            2060     304.795E-03     308.855E-03
            1694            2061     279.215E-03     283.962E-03
            1693            2061     279.215E-03     283.962E-03
            1710            2061     279.215E-03     283.962E-03
            1709            2061     279.215E-03     283.962E-03
            1694            2062     253.736E-03     259.407E-03
            1711            2062     253.736E-03     259.407E-03
            1710            2062     253.736E-03     259.407E-03
            1695            2062     253.736E-03     259.407E-03
            1711            2063     228.664E-03     235.087E-03
            1696            2063     228.664E-03     235.087E-03
            1712            2063     228.664E-03     235.087E-03
            1695            2063     228.664E-03     235.087E-03
            1696            2064     203.668E-03     210.990E-03
            1697            2064     203.668E-03     210.990E-03
            1712            2064     203.668E-03     210.990E-03
            1713            2064     203.668E-03     210.990E-03
            1713            2065     179.013E-03     187.083E-03
            1697            2065     179.013E-03     187.083E-03
            1698            2065     179.013E-03     187.083E-03
            1714            2065     179.013E-03     187.083E-03
            1698            2066     154.606E-03     163.505E-03
            1714            2066     154.606E-03     163.505E-03
            1715            2066     154.606E-03     163.505E-03
            1699            2066     154.606E-03     163.505E-03
            1699            2067     130.802E-03     140.416E-03
            1715            2067     130.802E-03     140.416E-03
            1700            2067     130.802E-03     140.416E-03
            1716            2067     130.802E-03     140.416E-03
            1716            2068     107.811E-03     117.975E-03
            1717            2068     107.811E-03     117.975E-03
            1700            2068     107.811E-03     117.975E-03
            1701            2068     107.811E-03     117.975E-03
            1701            2069     85.9847E-03     96.2198E-03
            1702            2069     85.9847E-03     96.2198E-03
            1717            2069     85.9847E-03     96.2198E-03
            1718            2069     85.9847E-03     96.2198E-03
            1718            2070     64.5713E-03     72.7120E-03
            1703            2070     64.5713E-03     72.7120E-03
            1702            2070     64.5713E-03     72.7120E-03
            1719            2070     64.5713E-03     72.7120E-03
            1720            2071     43.5630E-03     42.8239E-03
            1704            2071     43.5630E-03     42.8239E-03
            1719            2071     43.5630E-03     42.8239E-03
            1703            2071     43.5630E-03     42.8239E-03
            1705            2072     391.958E-03     396.159E-03
            1706            2072     391.958E-03     396.159E-03
            1721            2072     391.958E-03     396.159E-03
            1722            2072     391.958E-03     396.159E-03
            1722            2073     360.984E-03     369.350E-03
            1706            2073     360.984E-03     369.350E-03
            1707            2073     360.984E-03     369.350E-03
            1723            2073     360.984E-03     369.350E-03
            1707            2074     331.637E-03     339.863E-03
            1723            2074     331.637E-03     339.863E-03
            1708            2074     331.637E-03     339.863E-03
            1724            2074     331.637E-03     339.863E-03
            1709            2075     306.425E-03     313.909E-03
            1725            2075     306.425E-03     313.909E-03
            1724            2075     306.425E-03     313.909E-03
            1708            2075     306.425E-03     313.909E-03
            1709            2076     281.462E-03     288.762E-03
            1710            2076     281.462E-03     288.762E-03
            1726            2076     281.462E-03     288.762E-03
            1725            2076     281.462E-03     288.762E-03
            1710            2077     256.855E-03     264.085E-03
            1726            2077     256.855E-03     264.085E-03
            1711            2077     256.855E-03     264.085E-03
            1727            2077     256.855E-03     264.085E-03
            1727            2078     232.487E-03     239.783E-03
            1728            2078     232.487E-03     239.783E-03
            1711            2078     232.487E-03     239.783E-03
            1712            2078     232.487E-03     239.783E-03
            1713            2079     208.465E-03     215.732E-03
            1728            2079     208.465E-03     215.732E-03
            1729            2079     208.465E-03     215.732E-03
            1712            2079     208.465E-03     215.732E-03
            1729            2080     184.781E-03     192.076E-03
            1714            2080     184.781E-03     192.076E-03
            1730            2080     184.781E-03     192.076E-03
            1713            2080     184.781E-03     192.076E-03
            1714            2081     161.607E-03     168.828E-03
            1715            2081     161.607E-03     168.828E-03
            1731            2081     161.607E-03     168.828E-03
            1730            2081     161.607E-03     168.828E-03
            1715            2082     139.271E-03     146.357E-03
            1716            2082     139.271E-03     146.357E-03
            1731            2082     139.271E-03     146.357E-03
            1732            2082     139.271E-03     146.357E-03
            1717            2083     118.154E-03     124.852E-03
            1716            2083     118.154E-03     124.852E-03
            1733            2083     118.154E-03     124.852E-03
            1732            2083     118.154E-03     124.852E-03
            1717            2084     99.0370E-03     105.518E-03
            1734            2084     99.0370E-03     105.518E-03
            1718            2084     99.0370E-03     105.518E-03
            1733            2084     99.0370E-03     105.518E-03
            1718            2085     80.5674E-03     86.8916E-03
            1735            2085     80.5674E-03     86.8916E-03
            1719            2085     80.5674E-03     86.8916E-03
            1734            2085     80.5674E-03     86.8916E-03
            1719            2086     56.3361E-03     60.7208E-03
            1736            2086     56.3361E-03     60.7208E-03
            1720            2086     56.3361E-03     60.7208E-03
            1735            2086     56.3361E-03     60.7208E-03
            1721            2087     384.280E-03     395.909E-03
            1737            2087     384.280E-03     395.909E-03
            1738            2087     384.280E-03     395.909E-03
            1722            2087     384.280E-03     395.909E-03
            1738            2088     348.884E-03     361.169E-03
            1739            2088     348.884E-03     361.169E-03
            1722            2088     348.884E-03     361.169E-03
            1723            2088     348.884E-03     361.169E-03
            1723            2089     324.954E-03     335.964E-03
            1740            2089     324.954E-03     335.964E-03
            1724            2089     324.954E-03     335.964E-03
            1739            2089     324.954E-03     335.964E-03
            1741            2090     302.980E-03     313.199E-03
            1740            2090     302.980E-03     313.199E-03
            1724            2090     302.980E-03     313.199E-03
            1725            2090     302.980E-03     313.199E-03
            1725            2091     280.878E-03     290.244E-03
            1741            2091     280.878E-03     290.244E-03
            1742            2091     280.878E-03     290.244E-03
            1726            2091     280.878E-03     290.244E-03
            1742            2092     258.528E-03     267.136E-03
            1743            2092     258.528E-03     267.136E-03
            1726            2092     258.528E-03     267.136E-03
            1727            2092     258.528E-03     267.136E-03
            1743            2093     236.057E-03     243.762E-03
            1728            2093     236.057E-03     243.762E-03
            1727            2093     236.057E-03     243.762E-03
            1744            2093     236.057E-03     243.762E-03
            1728            2094     213.652E-03     220.549E-03
            1745            2094     213.652E-03     220.549E-03
            1744            2094     213.652E-03     220.549E-03
            1729            2094     213.652E-03     220.549E-03
            1729            2095     191.503E-03     197.540E-03
            1745            2095     191.503E-03     197.540E-03
            1730            2095     191.503E-03     197.540E-03
            1746            2095     191.503E-03     197.540E-03
            1731            2096     169.917E-03     175.128E-03
            1747            2096     169.917E-03     175.128E-03
            1746            2096     169.917E-03     175.128E-03
            1730            2096     169.917E-03     175.128E-03
            1731            2097     149.034E-03     153.382E-03
            1732            2097     149.034E-03     153.382E-03
            1748            2097     149.034E-03     153.382E-03
            1747            2097     149.034E-03     153.382E-03
            1733            2098     129.593E-03     133.152E-03
            1748            2098     129.593E-03     133.152E-03
            1749            2098     129.593E-03     133.152E-03
            1732            2098     129.593E-03     133.152E-03
            1734            2099     111.401E-03     114.374E-03
            1750            2099     111.401E-03     114.374E-03
            1749            2099     111.401E-03     114.374E-03
            1733            2099     111.401E-03     114.374E-03
            1750            2100     95.2175E-03     98.7772E-03
            1751            2100     95.2175E-03     98.7772E-03
            1735            2100     95.2175E-03     98.7772E-03
            1734            2100     95.2175E-03     98.7772E-03
            1751            2101     76.7556E-03     82.8043E-03
            1752            2101     76.7556E-03     82.8043E-03
            1735            2101     76.7556E-03     82.8043E-03
            1736            2101     76.7556E-03     82.8043E-03
            2369            2543     232.786E-03     248.396E-03
            2370            2543     232.786E-03     248.396E-03
            2386            2543     232.786E-03     248.396E-03
            2385            2543     232.786E-03     248.396E-03
            2387            2544     204.821E-03     222.424E-03
            2370            2544     204.821E-03     222.424E-03
            2386            2544     204.821E-03     222.424E-03
            2371            2544     204.821E-03     222.424E-03
            2371            2545     189.556E-03     207.304E-03
            2372            2545     189.556E-03     207.304E-03
            2388            2545     189.556E-03     207.304E-03
            2387            2545     189.556E-03     207.304E-03
            2372            2546     175.565E-03     193.091E-03
            2389            2546     175.565E-03     193.091E-03
            2373            2546     175.565E-03     193.091E-03
            2388            2546     175.565E-03     193.091E-03
            2389            2547     161.026E-03     178.483E-03
            2374            2547     161.026E-03     178.483E-03
            2373            2547     161.026E-03     178.483E-03
            2390            2547     161.026E-03     178.483E-03
            2375            2548     146.669E-03     164.194E-03
            2391            2548     146.669E-03     164.194E-03
            2374            2548     146.669E-03     164.194E-03
            2390            2548     146.669E-03     164.194E-03
            2392            2549     132.432E-03     149.782E-03
            2391            2549     132.432E-03     149.782E-03
            2375            2549     132.432E-03     149.782E-03
            2376            2549     132.432E-03     149.782E-03
            2376            2550     118.236E-03     135.577E-03
            2377            2550     118.236E-03     135.577E-03
            2392            2550     118.236E-03     135.577E-03
            2393            2550     118.236E-03     135.577E-03
            2378            2551     104.227E-03     121.361E-03
            2393            2551     104.227E-03     121.361E-03
            2394            2551     104.227E-03     121.361E-03
            2377            2551     104.227E-03     121.361E-03
            2378            2552     90.3482E-03     107.346E-03
            2394            2552     90.3482E-03     107.346E-03
            2395            2552     90.3482E-03     107.346E-03
            2379            2552     90.3482E-03     107.346E-03
            2396            2553     76.7992E-03     93.4534E-03
            2379            2553     76.7992E-03     93.4534E-03
            2380            2553     76.7992E-03     93.4534E-03
            2395            2553     76.7992E-03     93.4534E-03
            2380            2554     63.6369E-03     79.8834E-03
            2381            2554     63.6369E-03     79.8834E-03
            2396            2554     63.6369E-03     79.8834E-03
            2397            2554     63.6369E-03     79.8834E-03
            2398            2555     51.3044E-03     66.6177E-03
            2397            2555     51.3044E-03     66.6177E-03
            2382            2555     51.3044E-03     66.6177E-03
            2381            2555     51.3044E-03     66.6177E-03
            2383            2556     41.1655E-03     54.6173E-03
            2398            2556     41.1655E-03     54.6173E-03
            2399            2556     41.1655E-03     54.6173E-03
            2382            2556     41.1655E-03     54.6173E-03
            2399            2557     36.5033E-03     45.8174E-03
            2400            2557     36.5033E-03     45.8174E-03
            2383            2557     36.5033E-03     45.8174E-03
            2384            2557     36.5033E-03     45.8174E-03
            2385            2558     220.175E-03     208.757E-03
            2402            2558     220.175E-03     208.757E-03
            2401            2558     220.175E-03     208.757E-03
            2386            2558     220.175E-03     208.757E-03
            2403            2559     219.228E-03     210.116E-03
            2402            2559     219.228E-03     210.116E-03
            2386            2559     219.228E-03     210.116E-03
            2387            2559     219.228E-03     210.116E-03
            2388            2560     204.102E-03     195.074E-03
            2387            2560     204.102E-03     195.074E-03
            2403            2560     204.102E-03     195.074E-03
            2404            2560     204.102E-03     195.074E-03
            2388            2561     189.943E-03     180.710E-03
            2404            2561     189.943E-03     180.710E-03
            2389            2561     189.943E-03     180.710E-03
            2405            2561     189.943E-03     180.710E-03
            2406            2562     175.800E-03     166.833E-03
            2405            2562     175.800E-03     166.833E-03
            2389            2562     175.800E-03     166.833E-03
            2390            2562     175.800E-03     166.833E-03
            2390            2563     161.805E-03     152.810E-03
            2407            2563     161.805E-03     152.810E-03
            2406            2563     161.805E-03     152.810E-03
            2391            2563     161.805E-03     152.810E-03
            2408            2564     147.680E-03     138.883E-03
            2391            2564     147.680E-03     138.883E-03
            2407            2564     147.680E-03     138.883E-03
            2392            2564     147.680E-03     138.883E-03
            2408            2565     133.734E-03     124.991E-03
            2409            2565     133.734E-03     124.991E-03
            2392            2565     133.734E-03     124.991E-03
            2393            2565     133.734E-03     124.991E-03
            2410            2566     119.843E-03     111.328E-03
            2409            2566     119.843E-03     111.328E-03
            2393            2566     119.843E-03     111.328E-03
            2394            2566     119.843E-03     111.328E-03
            2411            2567     106.207E-03     97.8828E-03
            2410            2567     106.207E-03     97.8828E-03
            2395            2567     106.207E-03     97.8828E-03
            2394            2567     106.207E-03     97.8828E-03
            2411            2568     92.8082E-03     84.8632E-03
            2412            2568     92.8082E-03     84.8632E-03
            2396            2568     92.8082E-03     84.8632E-03
            2395            2568     92.8082E-03     84.8632E-03
            2413            2569     79.8985E-03     72.4784E-03
            2396            2569     79.8985E-03     72.4784E-03
            2412            2569     79.8985E-03     72.4784E-03
            2397            2569     79.8985E-03     72.4784E-03
            2413            2570     67.7532E-03     60.9239E-03
            2414            2570     67.7532E-03     60.9239E-03
            2397            2570     67.7532E-03     60.9239E-03
            2398            2570     67.7532E-03     60.9239E-03
            2415            2571     57.0047E-03     51.7604E-03
            2414            2571     57.0047E-03     51.7604E-03
            2399            2571     57.0047E-03     51.7604E-03
            2398            2571     57.0047E-03     51.7604E-03
            2415            2572     49.5386E-03     47.4405E-03
            2416            2572     49.5386E-03     47.4405E-03
            2399            2572     49.5386E-03     47.4405E-03
            2400            2572     49.5386E-03     47.4405E-03
            2402            2573     190.565E-03     194.774E-03
            2417            2573     190.565E-03     194.774E-03
            2418            2573     190.565E-03     194.774E-03
            2401            2573     190.565E-03     194.774E-03
            2418            2574     171.359E-03     169.338E-03
            2403            2574     171.359E-03     169.338E-03
            2402            2574     171.359E-03     169.338E-03
            2419            2574     171.359E-03     169.338E-03
            2403            2575     155.168E-03     151.796E-03
            2420            2575     155.168E-03     151.796E-03
            2404            2575     155.168E-03     151.796E-03
            2419            2575     155.168E-03     151.796E-03
            2421            2576     141.330E-03     138.266E-03
            2405            2576     141.330E-03     138.266E-03
            2404            2576     141.330E-03     138.266E-03
            2420            2576     141.330E-03     138.266E-03
            2421            2577     130.542E-03     127.518E-03
            2406            2577     130.542E-03     127.518E-03
            2422            2577     130.542E-03     127.518E-03
            2405            2577     130.542E-03     127.518E-03
            2406            2578     120.218E-03     117.186E-03
            2423            2578     120.218E-03     117.186E-03
            2422            2578     120.218E-03     117.186E-03
            2407            2578     120.218E-03     117.186E-03
            2407            2579     110.168E-03     107.218E-03
            2408            2579     110.168E-03     107.218E-03
            2424            2579     110.168E-03     107.218E-03
            2423            2579     110.168E-03     107.218E-03
            2408            2580     100.228E-03     97.2382E-03
            2424            2580     100.228E-03     97.2382E-03
            2409            2580     100.228E-03     97.2382E-03
            2425            2580     100.228E-03     97.2382E-03
            2409            2581     90.3837E-03     87.4409E-03
            2426            2581     90.3837E-03     87.4409E-03
            2410            2581     90.3837E-03     87.4409E-03
            2425            2581     90.3837E-03     87.4409E-03
            2427            2582     80.8076E-03     77.8110E-03
            2426            2582     80.8076E-03     77.8110E-03
            2411            2582     80.8076E-03     77.8110E-03
            2410            2582     80.8076E-03     77.8110E-03
            2411            2583     71.5489E-03     68.5173E-03
            2412            2583     71.5489E-03     68.5173E-03
            2428            2583     71.5489E-03     68.5173E-03
            2427            2583     71.5489E-03     68.5173E-03
            2412            2584     62.8892E-03     59.8238E-03
            2428            2584     62.8892E-03     59.8238E-03
            2413            2584     62.8892E-03     59.8238E-03
            2429            2584     62.8892E-03     59.8238E-03
            2430            2585     55.0393E-03     52.0069E-03
            2429            2585     55.0393E-03     52.0069E-03
            2414            2585     55.0393E-03     52.0069E-03
            2413            2585     55.0393E-03     52.0069E-03
            2415            2586     48.1167E-03     46.3527E-03
            2414            2586     48.1167E-03     46.3527E-03
            2431            2586     48.1167E-03     46.3527E-03
            2430            2586     48.1167E-03     46.3527E-03
            2416            2587     40.9199E-03     43.7009E-03
            2415            2587     40.9199E-03     43.7009E-03
            2431            2587     40.9199E-03     43.7009E-03
            2432            2587     40.9199E-03     43.7009E-03
            2433            2588     174.770E-03     186.915E-03
            2434            2588     174.770E-03     186.915E-03
            2418            2588     174.770E-03     186.915E-03
            2417            2588     174.770E-03     186.915E-03
            2418            2589     123.266E-03     137.614E-03
            2434            2589     123.266E-03     137.614E-03
            2419            2589     123.266E-03     137.614E-03
            2435            2589     123.266E-03     137.614E-03
            2435            2590     100.367E-03     114.444E-03
            2420            2590     100.367E-03     114.444E-03
            2419            2590     100.367E-03     114.444E-03
            2436            2590     100.367E-03     114.444E-03
            2421            2591     88.7202E-03     102.557E-03
            2436            2591     88.7202E-03     102.557E-03
            2420            2591     88.7202E-03     102.557E-03
            2437            2591     88.7202E-03     102.557E-03
            2438            2592     80.3688E-03     94.1354E-03
            2437            2592     80.3688E-03     94.1354E-03
            2421            2592     80.3688E-03     94.1354E-03
            2422            2592     80.3688E-03     94.1354E-03
            2438            2593     73.8205E-03     87.3861E-03
            2422            2593     73.8205E-03     87.3861E-03
            2423            2593     73.8205E-03     87.3861E-03
            2439            2593     73.8205E-03     87.3861E-03
            2423            2594     67.5335E-03     80.8916E-03
            2424            2594     67.5335E-03     80.8916E-03
            2440            2594     67.5335E-03     80.8916E-03
            2439            2594     67.5335E-03     80.8916E-03
            2424            2595     61.4924E-03     74.6041E-03
            2425            2595     61.4924E-03     74.6041E-03
            2441            2595     61.4924E-03     74.6041E-03
            2440            2595     61.4924E-03     74.6041E-03
            2426            2596     55.5822E-03     68.3144E-03
            2425            2596     55.5822E-03     68.3144E-03
            2441            2596     55.5822E-03     68.3144E-03
            2442            2596     55.5822E-03     68.3144E-03
            2427            2597     49.9433E-03     62.1706E-03
            2426            2597     49.9433E-03     62.1706E-03
            2442            2597     49.9433E-03     62.1706E-03
            2443            2597     49.9433E-03     62.1706E-03
            2428            2598     44.7570E-03     56.1951E-03
            2444            2598     44.7570E-03     56.1951E-03
            2443            2598     44.7570E-03     56.1951E-03
            2427            2598     44.7570E-03     56.1951E-03
            2428            2599     40.2641E-03     50.5386E-03
            2444            2599     40.2641E-03     50.5386E-03
            2429            2599     40.2641E-03     50.5386E-03
            2445            2599     40.2641E-03     50.5386E-03
            2430            2600     36.6603E-03     45.4900E-03
            2445            2600     36.6603E-03     45.4900E-03
            2429            2600     36.6603E-03     45.4900E-03
            2446            2600     36.6603E-03     45.4900E-03
            2430            2601     33.8989E-03     41.6117E-03
            2446            2601     33.8989E-03     41.6117E-03
            2447            2601     33.8989E-03     41.6117E-03
            2431            2601     33.8989E-03     41.6117E-03
            2432            2602     33.3700E-03     40.0597E-03
            2448            2602     33.3700E-03     40.0597E-03
            2447            2602     33.3700E-03     40.0597E-03
            2431            2602     33.3700E-03     40.0597E-03
            2449            2603     160.422E-03     161.310E-03
            2433            2603     160.422E-03     161.310E-03
            2450            2603     160.422E-03     161.310E-03
            2434            2603     160.422E-03     161.310E-03
            2451            2604     125.277E-03     131.567E-03
            2450            2604     125.277E-03     131.567E-03
            2435            2604     125.277E-03     131.567E-03
            2434            2604     125.277E-03     131.567E-03
            2451            2605     103.716E-03     112.868E-03
            2436            2605     103.716E-03     112.868E-03
            2452            2605     103.716E-03     112.868E-03
            2435            2605     103.716E-03     112.868E-03
            2436            2606     93.2880E-03     102.766E-03
            2437            2606     93.2880E-03     102.766E-03
            2453            2606     93.2880E-03     102.766E-03
            2452            2606     93.2880E-03     102.766E-03
            2438            2607     85.8784E-03     94.9507E-03
            2454            2607     85.8784E-03     94.9507E-03
            2437            2607     85.8784E-03     94.9507E-03
            2453            2607     85.8784E-03     94.9507E-03
            2454            2608     79.0597E-03     87.8991E-03
            2438            2608     79.0597E-03     87.8991E-03
            2439            2608     79.0597E-03     87.8991E-03
            2455            2608     79.0597E-03     87.8991E-03
            2455            2609     72.6716E-03     81.2629E-03
            2456            2609     72.6716E-03     81.2629E-03
            2439            2609     72.6716E-03     81.2629E-03
            2440            2609     72.6716E-03     81.2629E-03
            2440            2610     66.4292E-03     74.7889E-03
            2441            2610     66.4292E-03     74.7889E-03
            2456            2610     66.4292E-03     74.7889E-03
            2457            2610     66.4292E-03     74.7889E-03
            2458            2611     60.4567E-03     68.5339E-03
            2441            2611     60.4567E-03     68.5339E-03
            2442            2611     60.4567E-03     68.5339E-03
            2457            2611     60.4567E-03     68.5339E-03
            2458            2612     54.7937E-03     62.4736E-03
            2442            2612     54.7937E-03     62.4736E-03
            2459            2612     54.7937E-03     62.4736E-03
            2443            2612     54.7937E-03     62.4736E-03
            2459            2613     49.6003E-03     56.7639E-03
            2460            2613     49.6003E-03     56.7639E-03
            2443            2613     49.6003E-03     56.7639E-03
            2444            2613     49.6003E-03     56.7639E-03
            2460            2614     45.1961E-03     51.4387E-03
            2445            2614     45.1961E-03     51.4387E-03
            2461            2614     45.1961E-03     51.4387E-03
            2444            2614     45.1961E-03     51.4387E-03
            2446            2615     41.6857E-03     46.7426E-03
            2461            2615     41.6857E-03     46.7426E-03
            2462            2615     41.6857E-03     46.7426E-03
            2445            2615     41.6857E-03     46.7426E-03
            2446            2616     40.1021E-03     43.1028E-03
            2462            2616     40.1021E-03     43.1028E-03
            2447            2616     40.1021E-03     43.1028E-03
            2463            2616     40.1021E-03     43.1028E-03
            2464            2617     41.9605E-03     40.1682E-03
            2447            2617     41.9605E-03     40.1682E-03
            2448            2617     41.9605E-03     40.1682E-03
            2463            2617     41.9605E-03     40.1682E-03
            2450            2618     132.762E-03     135.941E-03
            2465            2618     132.762E-03     135.941E-03
            2466            2618     132.762E-03     135.941E-03
            2449            2618     132.762E-03     135.941E-03
            2467            2619     114.594E-03     118.108E-03
            2466            2619     114.594E-03     118.108E-03
            2450            2619     114.594E-03     118.108E-03
            2451            2619     114.594E-03     118.108E-03
            2467            2620     104.891E-03     109.742E-03
            2451            2620     104.891E-03     109.742E-03
            2452            2620     104.891E-03     109.742E-03
            2468            2620     104.891E-03     109.742E-03
            2469            2621     97.5812E-03     102.476E-03
            2452            2621     97.5812E-03     102.476E-03
            2468            2621     97.5812E-03     102.476E-03
            2453            2621     97.5812E-03     102.476E-03
            2470            2622     90.9992E-03     95.4558E-03
            2453            2622     90.9992E-03     95.4558E-03
            2469            2622     90.9992E-03     95.4558E-03
            2454            2622     90.9992E-03     95.4558E-03
            2454            2623     84.0878E-03     88.2696E-03
            2455            2623     84.0878E-03     88.2696E-03
            2471            2623     84.0878E-03     88.2696E-03
            2470            2623     84.0878E-03     88.2696E-03
            2471            2624     77.4261E-03     81.4391E-03
            2472            2624     77.4261E-03     81.4391E-03
            2455            2624     77.4261E-03     81.4391E-03
            2456            2624     77.4261E-03     81.4391E-03
            2456            2625     71.0496E-03     74.8907E-03
            2457            2625     71.0496E-03     74.8907E-03
            2473            2625     71.0496E-03     74.8907E-03
            2472            2625     71.0496E-03     74.8907E-03
            2458            2626     65.0152E-03     68.6958E-03
            2457            2626     65.0152E-03     68.6958E-03
            2474            2626     65.0152E-03     68.6958E-03
            2473            2626     65.0152E-03     68.6958E-03
            2459            2627     59.3982E-03     62.8862E-03
            2475            2627     59.3982E-03     62.8862E-03
            2458            2627     59.3982E-03     62.8862E-03
            2474            2627     59.3982E-03     62.8862E-03
            2460            2628     54.2839E-03     57.4976E-03
            2459            2628     54.2839E-03     57.4976E-03
            2475            2628     54.2839E-03     57.4976E-03
            2476            2628     54.2839E-03     57.4976E-03
            2460            2629     49.8246E-03     52.7422E-03
            2476            2629     49.8246E-03     52.7422E-03
            2477            2629     49.8246E-03     52.7422E-03
            2461            2629     49.8246E-03     52.7422E-03
            2462            2630     46.8159E-03     48.5424E-03
            2478            2630     46.8159E-03     48.5424E-03
            2461            2630     46.8159E-03     48.5424E-03
            2477            2630     46.8159E-03     48.5424E-03
            2478            2631     45.9927E-03     44.6965E-03
            2462            2631     45.9927E-03     44.6965E-03
            2479            2631     45.9927E-03     44.6965E-03
            2463            2631     45.9927E-03     44.6965E-03
            2480            2632     46.8567E-03     42.6929E-03
            2464            2632     46.8567E-03     42.6929E-03
            2463            2632     46.8567E-03     42.6929E-03
            2479            2632     46.8567E-03     42.6929E-03
            2481            2633     106.864E-03     106.842E-03
            2465            2633     106.864E-03     106.842E-03
            2466            2633     106.864E-03     106.842E-03
            2482            2633     106.864E-03     106.842E-03
            2467            2634     97.9864E-03     100.869E-03
            2482            2634     97.9864E-03     100.869E-03
            2466            2634     97.9864E-03     100.869E-03
            2483            2634     97.9864E-03     100.869E-03
            2483            2635     101.616E-03     102.885E-03
            2484            2635     101.616E-03     102.885E-03
            2468            2635     101.616E-03     102.885E-03
            2467            2635     101.616E-03     102.885E-03
            2468            2636     100.116E-03     99.9733E-03
            2469            2636     100.116E-03     99.9733E-03
            2485            2636     100.116E-03     99.9733E-03
            2484            2636     100.116E-03     99.9733E-03
            2485            2637     94.1886E-03     93.9204E-03
            2470            2637     94.1886E-03     93.9204E-03
            2486            2637     94.1886E-03     93.9204E-03
            2469            2637     94.1886E-03     93.9204E-03
            2487            2638     87.8638E-03     87.4045E-03
            2471            2638     87.8638E-03     87.4045E-03
            2486            2638     87.8638E-03     87.4045E-03
            2470            2638     87.8638E-03     87.4045E-03
            2471            2639     81.2541E-03     80.7654E-03
            2472            2639     81.2541E-03     80.7654E-03
            2488            2639     81.2541E-03     80.7654E-03
            2487            2639     81.2541E-03     80.7654E-03
            2489            2640     75.0268E-03     74.5347E-03
            2473            2640     75.0268E-03     74.5347E-03
            2472            2640     75.0268E-03     74.5347E-03
            2488            2640     75.0268E-03     74.5347E-03
            2473            2641     69.1666E-03     68.6844E-03
            2489            2641     69.1666E-03     68.6844E-03
            2490            2641     69.1666E-03     68.6844E-03
            2474            2641     69.1666E-03     68.6844E-03
            2474            2642     63.7416E-03     63.3044E-03
            2475            2642     63.7416E-03     63.3044E-03
            2491            2642     63.7416E-03     63.3044E-03
            2490            2642     63.7416E-03     63.3044E-03
            2475            2643     58.8079E-03     58.4518E-03
            2491            2643     58.8079E-03     58.4518E-03
            2492            2643     58.8079E-03     58.4518E-03
            2476            2643     58.8079E-03     58.4518E-03
            2492            2644     54.4585E-03     54.2728E-03
            2493            2644     54.4585E-03     54.2728E-03
            2477            2644     54.4585E-03     54.2728E-03
            2476            2644     54.4585E-03     54.2728E-03
            2478            2645     51.1947E-03     50.9846E-03
            2494            2645     51.1947E-03     50.9846E-03
            2493            2645     51.1947E-03     50.9846E-03
            2477            2645     51.1947E-03     50.9846E-03
            2479            2646     49.9917E-03     48.2650E-03
            2494            2646     49.9917E-03     48.2650E-03
            2495            2646     49.9917E-03     48.2650E-03
            2478            2646     49.9917E-03     48.2650E-03
            2495            2647     50.8067E-03     46.3499E-03
            2496            2647     50.8067E-03     46.3499E-03
            2480            2647     50.8067E-03     46.3499E-03
            2479            2647     50.8067E-03     46.3499E-03
            2481            2648     80.8090E-03     79.4841E-03
            2482            2648     80.8090E-03     79.4841E-03
            2497            2648     80.8090E-03     79.4841E-03
            2498            2648     80.8090E-03     79.4841E-03
            2482            2649     84.9478E-03     82.8264E-03
            2499            2649     84.9478E-03     82.8264E-03
            2483            2649     84.9478E-03     82.8264E-03
            2498            2649     84.9478E-03     82.8264E-03
            2500            2650     97.4529E-03     92.9461E-03
            2483            2650     97.4529E-03     92.9461E-03
            2499            2650     97.4529E-03     92.9461E-03
            2484            2650     97.4529E-03     92.9461E-03
            2484            2651     98.5400E-03     93.3292E-03
            2500            2651     98.5400E-03     93.3292E-03
            2485            2651     98.5400E-03     93.3292E-03
            2501            2651     98.5400E-03     93.3292E-03
            2485            2652     95.0891E-03     89.7624E-03
            2502            2652     95.0891E-03     89.7624E-03
            2501            2652     95.0891E-03     89.7624E-03
            2486            2652     95.0891E-03     89.7624E-03
            2487            2653     89.6203E-03     84.5196E-03
            2503            2653     89.6203E-03     84.5196E-03
            2502            2653     89.6203E-03     84.5196E-03
            2486            2653     89.6203E-03     84.5196E-03
            2487            2654     83.9365E-03     79.0262E-03
            2488            2654     83.9365E-03     79.0262E-03
            2504            2654     83.9365E-03     79.0262E-03
            2503            2654     83.9365E-03     79.0262E-03
            2504            2655     78.2587E-03     73.5968E-03
            2505            2655     78.2587E-03     73.5968E-03
            2489            2655     78.2587E-03     73.5968E-03
            2488            2655     78.2587E-03     73.5968E-03
            2489            2656     72.8985E-03     68.5050E-03
            2505            2656     72.8985E-03     68.5050E-03
            2506            2656     72.8985E-03     68.5050E-03
            2490            2656     72.8985E-03     68.5050E-03
            2490            2657     67.8709E-03     63.8021E-03
            2506            2657     67.8709E-03     63.8021E-03
            2491            2657     67.8709E-03     63.8021E-03
            2507            2657     67.8709E-03     63.8021E-03
            2491            2658     63.2364E-03     59.6392E-03
            2508            2658     63.2364E-03     59.6392E-03
            2492            2658     63.2364E-03     59.6392E-03
            2507            2658     63.2364E-03     59.6392E-03
            2508            2659     59.1429E-03     56.0983E-03
            2492            2659     59.1429E-03     56.0983E-03
            2493            2659     59.1429E-03     56.0983E-03
            2509            2659     59.1429E-03     56.0983E-03
            2494            2660     55.3521E-03     53.6876E-03
            2510            2660     55.3521E-03     53.6876E-03
            2509            2660     55.3521E-03     53.6876E-03
            2493            2660     55.3521E-03     53.6876E-03
            2494            2661     52.6820E-03     52.9676E-03
            2495            2661     52.6820E-03     52.9676E-03
            2511            2661     52.6820E-03     52.9676E-03
            2510            2661     52.6820E-03     52.9676E-03
            2496            2662     53.7849E-03     52.4372E-03
            2511            2662     53.7849E-03     52.4372E-03
            2495            2662     53.7849E-03     52.4372E-03
            2512            2662     53.7849E-03     52.4372E-03
            2513            2663     62.9019E-03     60.4575E-03
            2514            2663     62.9019E-03     60.4575E-03
            2497            2663     62.9019E-03     60.4575E-03
            2498            2663     62.9019E-03     60.4575E-03
            2498            2664     76.5532E-03     65.1624E-03
            2515            2664     76.5532E-03     65.1624E-03
            2499            2664     76.5532E-03     65.1624E-03
            2514            2664     76.5532E-03     65.1624E-03
            2499            2665     90.5414E-03     78.7826E-03
            2515            2665     90.5414E-03     78.7826E-03
            2500            2665     90.5414E-03     78.7826E-03
            2516            2665     90.5414E-03     78.7826E-03
            2501            2666     94.0299E-03     83.1515E-03
            2500            2666     94.0299E-03     83.1515E-03
            2516            2666     94.0299E-03     83.1515E-03
            2517            2666     94.0299E-03     83.1515E-03
            2502            2667     93.2152E-03     82.9624E-03
            2501            2667     93.2152E-03     82.9624E-03
            2517            2667     93.2152E-03     82.9624E-03
            2518            2667     93.2152E-03     82.9624E-03
            2519            2668     89.9530E-03     80.2408E-03
            2518            2668     89.9530E-03     80.2408E-03
            2502            2668     89.9530E-03     80.2408E-03
            2503            2668     89.9530E-03     80.2408E-03
            2520            2669     85.6684E-03     76.5580E-03
            2503            2669     85.6684E-03     76.5580E-03
            2504            2669     85.6684E-03     76.5580E-03
            2519            2669     85.6684E-03     76.5580E-03
            2504            2670     81.0684E-03     72.4725E-03
            2505            2670     81.0684E-03     72.4725E-03
            2520            2670     81.0684E-03     72.4725E-03
            2521            2670     81.0684E-03     72.4725E-03
            2522            2671     76.3915E-03     68.4149E-03
            2506            2671     76.3915E-03     68.4149E-03
            2505            2671     76.3915E-03     68.4149E-03
            2521            2671     76.3915E-03     68.4149E-03
            2507            2672     71.8977E-03     64.5902E-03
            2522            2672     71.8977E-03     64.5902E-03
            2523            2672     71.8977E-03     64.5902E-03
            2506            2672     71.8977E-03     64.5902E-03
            2508            2673     67.6531E-03     61.1600E-03
            2524            2673     67.6531E-03     61.1600E-03
            2507            2673     67.6531E-03     61.1600E-03
            2523            2673     67.6531E-03     61.1600E-03
            2525            2674     63.7704E-03     58.3538E-03
            2524            2674     63.7704E-03     58.3538E-03
            2508            2674     63.7704E-03     58.3538E-03
            2509            2674     63.7704E-03     58.3538E-03
            2510            2675     60.2445E-03     56.4235E-03
            2525            2675     60.2445E-03     56.4235E-03
            2509            2675     60.2445E-03     56.4235E-03
            2526            2675     60.2445E-03     56.4235E-03
            2511            2676     56.7059E-03     56.2856E-03
            2526            2676     56.7059E-03     56.2856E-03
            2510            2676     56.7059E-03     56.2856E-03
            2527            2676     56.7059E-03     56.2856E-03
            2512            2677     54.3635E-03     59.2479E-03
            2527            2677     54.3635E-03     59.2479E-03
            2528            2677     54.3635E-03     59.2479E-03
            2511            2677     54.3635E-03     59.2479E-03
            2513            2678     35.4407E-03     34.0573E-03
            2530            2678     35.4407E-03     34.0573E-03
            2529            2678     35.4407E-03     34.0573E-03
            2514            2678     35.4407E-03     34.0573E-03
            2515            2679     43.1288E-03     34.7262E-03
            2530            2679     43.1288E-03     34.7262E-03
            2514            2679     43.1288E-03     34.7262E-03
            2531            2679     43.1288E-03     34.7262E-03
            2532            2680     48.8294E-03     41.4170E-03
            2515            2680     48.8294E-03     41.4170E-03
            2516            2680     48.8294E-03     41.4170E-03
            2531            2680     48.8294E-03     41.4170E-03
            2533            2681     51.4469E-03     44.7548E-03
            2516            2681     51.4469E-03     44.7548E-03
            2532            2681     51.4469E-03     44.7548E-03
            2517            2681     51.4469E-03     44.7548E-03
            2518            2682     51.3319E-03     45.2129E-03
            2533            2682     51.3319E-03     45.2129E-03
            2517            2682     51.3319E-03     45.2129E-03
            2534            2682     51.3319E-03     45.2129E-03
            2518            2683     50.1820E-03     44.4615E-03
            2535            2683     50.1820E-03     44.4615E-03
            2534            2683     50.1820E-03     44.4615E-03
            2519            2683     50.1820E-03     44.4615E-03
            2535            2684     48.2171E-03     42.8751E-03
            2520            2684     48.2171E-03     42.8751E-03
            2519            2684     48.2171E-03     42.8751E-03
            2536            2684     48.2171E-03     42.8751E-03
            2520            2685     45.9904E-03     40.9989E-03
            2521            2685     45.9904E-03     40.9989E-03
            2537            2685     45.9904E-03     40.9989E-03
            2536            2685     45.9904E-03     40.9989E-03
            2538            2686     43.6376E-03     39.0524E-03
            2522            2686     43.6376E-03     39.0524E-03
            2537            2686     43.6376E-03     39.0524E-03
            2521            2686     43.6376E-03     39.0524E-03
            2539            2687     41.3356E-03     37.1726E-03
            2522            2687     41.3356E-03     37.1726E-03
            2538            2687     41.3356E-03     37.1726E-03
            2523            2687     41.3356E-03     37.1726E-03
            2540            2688     39.1300E-03     35.4765E-03
            2539            2688     39.1300E-03     35.4765E-03
            2524            2688     39.1300E-03     35.4765E-03
            2523            2688     39.1300E-03     35.4765E-03
            2524            2689     37.1304E-03     34.1278E-03
            2541            2689     37.1304E-03     34.1278E-03
            2525            2689     37.1304E-03     34.1278E-03
            2540            2689     37.1304E-03     34.1278E-03
            2541            2690     35.3318E-03     33.0630E-03
            2542            2690     35.3318E-03     33.0630E-03
            2526            2690     35.3318E-03     33.0630E-03
            2525            2690     35.3318E-03     33.0630E-03
            2527            2691     33.6829E-03     32.8954E-03
            2526            2691     33.6829E-03     32.8954E-03
            2542            2691     33.6829E-03     32.8954E-03
            2543            2691     33.6829E-03     32.8954E-03
            2544            2692     31.0219E-03     34.6205E-03
            2527            2692     31.0219E-03     34.6205E-03
            2528            2692     31.0219E-03     34.6205E-03
            2543            2692     31.0219E-03     34.6205E-03
            2658            2768     352.471E-03     360.004E-03
            2641            2768     352.471E-03     360.004E-03
            2657            2768     352.471E-03     360.004E-03
            2642            2768     352.471E-03     360.004E-03
            2642            2769     331.470E-03     337.939E-03
            2643            2769     331.470E-03     337.939E-03
            2659            2769     331.470E-03     337.939E-03
            2658            2769     331.470E-03     337.939E-03
            2659            2770     308.403E-03     314.840E-03
            2644            2770     308.403E-03     314.840E-03
            2660            2770     308.403E-03     314.840E-03
            2643            2770     308.403E-03     314.840E-03
            2661            2771     285.299E-03     292.374E-03
            2660            2771     285.299E-03     292.374E-03
            2645            2771     285.299E-03     292.374E-03
            2644            2771     285.299E-03     292.374E-03
            2646            2772     262.705E-03     269.097E-03
            2661            2772     262.705E-03     269.097E-03
            2662            2772     262.705E-03     269.097E-03
            2645            2772     262.705E-03     269.097E-03
            2646            2773     239.540E-03     246.520E-03
            2662            2773     239.540E-03     246.520E-03
            2663            2773     239.540E-03     246.520E-03
            2647            2773     239.540E-03     246.520E-03
            2664            2774     216.912E-03     223.495E-03
            2648            2774     216.912E-03     223.495E-03
            2647            2774     216.912E-03     223.495E-03
            2663            2774     216.912E-03     223.495E-03
            2665            2775     194.012E-03     200.880E-03
            2648            2775     194.012E-03     200.880E-03
            2664            2775     194.012E-03     200.880E-03
            2649            2775     194.012E-03     200.880E-03
            2649            2776     171.399E-03     178.138E-03
            2665            2776     171.399E-03     178.138E-03
            2650            2776     171.399E-03     178.138E-03
            2666            2776     171.399E-03     178.138E-03
            2667            2777     148.782E-03     155.639E-03
            2650            2777     148.782E-03     155.639E-03
            2666            2777     148.782E-03     155.639E-03
            2651            2777     148.782E-03     155.639E-03
            2668            2778     126.394E-03     133.271E-03
            2667            2778     126.394E-03     133.271E-03
            2652            2778     126.394E-03     133.271E-03
            2651            2778     126.394E-03     133.271E-03
            2653            2779     104.256E-03     111.238E-03
            2669            2779     104.256E-03     111.238E-03
            2652            2779     104.256E-03     111.238E-03
            2668            2779     104.256E-03     111.238E-03
            2670            2780     82.7127E-03     89.7889E-03
            2653            2780     82.7127E-03     89.7889E-03
            2654            2780     82.7127E-03     89.7889E-03
            2669            2780     82.7127E-03     89.7889E-03
            2654            2781     62.1499E-03     69.3260E-03
            2671            2781     62.1499E-03     69.3260E-03
            2670            2781     62.1499E-03     69.3260E-03
            2655            2781     62.1499E-03     69.3260E-03
            2672            2782     46.2230E-03     52.7161E-03
            2671            2782     46.2230E-03     52.7161E-03
            2656            2782     46.2230E-03     52.7161E-03
            2655            2782     46.2230E-03     52.7161E-03
            2658            2783     332.624E-03     337.463E-03
            2657            2783     332.624E-03     337.463E-03
            2674            2783     332.624E-03     337.463E-03
            2673            2783     332.624E-03     337.463E-03
            2659            2784     307.633E-03     309.910E-03
            2674            2784     307.633E-03     309.910E-03
            2675            2784     307.633E-03     309.910E-03
            2658            2784     307.633E-03     309.910E-03
            2675            2785     285.240E-03     287.575E-03
            2676            2785     285.240E-03     287.575E-03
            2659            2785     285.240E-03     287.575E-03
            2660            2785     285.240E-03     287.575E-03
            2677            2786     264.754E-03     267.727E-03
            2676            2786     264.754E-03     267.727E-03
            2661            2786     264.754E-03     267.727E-03
            2660            2786     264.754E-03     267.727E-03
            2661            2787     243.939E-03     246.524E-03
            2662            2787     243.939E-03     246.524E-03
            2678            2787     243.939E-03     246.524E-03
            2677            2787     243.939E-03     246.524E-03
            2678            2788     222.665E-03     225.700E-03
            2663            2788     222.665E-03     225.700E-03
            2662            2788     222.665E-03     225.700E-03
            2679            2788     222.665E-03     225.700E-03
            2663            2789     201.797E-03     204.552E-03
            2680            2789     201.797E-03     204.552E-03
            2679            2789     201.797E-03     204.552E-03
            2664            2789     201.797E-03     204.552E-03
            2664            2790     180.671E-03     183.712E-03
            2665            2790     180.671E-03     183.712E-03
            2681            2790     180.671E-03     183.712E-03
            2680            2790     180.671E-03     183.712E-03
            2681            2791     159.812E-03     162.762E-03
            2666            2791     159.812E-03     162.762E-03
            2682            2791     159.812E-03     162.762E-03
            2665            2791     159.812E-03     162.762E-03
            2682            2792     138.918E-03     142.042E-03
            2666            2792     138.918E-03     142.042E-03
            2667            2792     138.918E-03     142.042E-03
            2683            2792     138.918E-03     142.042E-03
            2667            2793     118.269E-03     121.419E-03
            2684            2793     118.269E-03     121.419E-03
            2668            2793     118.269E-03     121.419E-03
            2683            2793     118.269E-03     121.419E-03
            2685            2794     97.7635E-03     101.127E-03
            2669            2794     97.7635E-03     101.127E-03
            2668            2794     97.7635E-03     101.127E-03
            2684            2794     97.7635E-03     101.127E-03
            2670            2795     77.6785E-03     81.4779E-03
            2686            2795     77.6785E-03     81.4779E-03
            2685            2795     77.6785E-03     81.4779E-03
            2669            2795     77.6785E-03     81.4779E-03
            2686            2796     59.0767E-03     62.9114E-03
            2671            2796     59.0767E-03     62.9114E-03
            2670            2796     59.0767E-03     62.9114E-03
            2687            2796     59.0767E-03     62.9114E-03
            2688            2797     43.8275E-03     46.7392E-03
            2672            2797     43.8275E-03     46.7392E-03
            2687            2797     43.8275E-03     46.7392E-03
            2671            2797     43.8275E-03     46.7392E-03
            2674            2798     309.633E-03     325.218E-03
            2690            2798     309.633E-03     325.218E-03
            2673            2798     309.633E-03     325.218E-03
            2689            2798     309.633E-03     325.218E-03
            2674            2799     275.090E-03     292.964E-03
            2691            2799     275.090E-03     292.964E-03
            2675            2799     275.090E-03     292.964E-03
            2690            2799     275.090E-03     292.964E-03
            2676            2800     254.113E-03     272.133E-03
            2675            2800     254.113E-03     272.133E-03
            2692            2800     254.113E-03     272.133E-03
            2691            2800     254.113E-03     272.133E-03
            2693            2801     235.238E-03     253.040E-03
            2676            2801     235.238E-03     253.040E-03
            2692            2801     235.238E-03     253.040E-03
            2677            2801     235.238E-03     253.040E-03
            2677            2802     215.799E-03     233.498E-03
            2694            2802     215.799E-03     233.498E-03
            2678            2802     215.799E-03     233.498E-03
            2693            2802     215.799E-03     233.498E-03
            2694            2803     196.452E-03     214.248E-03
            2679            2803     196.452E-03     214.248E-03
            2678            2803     196.452E-03     214.248E-03
            2695            2803     196.452E-03     214.248E-03
            2695            2804     177.204E-03     194.848E-03
            2696            2804     177.204E-03     194.848E-03
            2679            2804     177.204E-03     194.848E-03
            2680            2804     177.204E-03     194.848E-03
            2696            2805     157.952E-03     175.626E-03
            2681            2805     157.952E-03     175.626E-03
            2697            2805     157.952E-03     175.626E-03
            2680            2805     157.952E-03     175.626E-03
            2681            2806     138.841E-03     156.365E-03
            2697            2806     138.841E-03     156.365E-03
            2682            2806     138.841E-03     156.365E-03
            2698            2806     138.841E-03     156.365E-03
            2682            2807     119.783E-03     137.263E-03
            2699            2807     119.783E-03     137.263E-03
            2698            2807     119.783E-03     137.263E-03
            2683            2807     119.783E-03     137.263E-03
            2683            2808     100.932E-03     118.231E-03
            2700            2808     100.932E-03     118.231E-03
            2684            2808     100.932E-03     118.231E-03
            2699            2808     100.932E-03     118.231E-03
            2685            2809     82.2967E-03     99.4315E-03
            2684            2809     82.2967E-03     99.4315E-03
            2701            2809     82.2967E-03     99.4315E-03
            2700            2809     82.2967E-03     99.4315E-03
            2686            2810     64.2570E-03     80.8509E-03
            2702            2810     64.2570E-03     80.8509E-03
            2685            2810     64.2570E-03     80.8509E-03
            2701            2810     64.2570E-03     80.8509E-03
            2703            2811     48.0092E-03     63.4692E-03
            2702            2811     48.0092E-03     63.4692E-03
            2686            2811     48.0092E-03     63.4692E-03
            2687            2811     48.0092E-03     63.4692E-03
            2704            2812     37.7896E-03     49.7037E-03
            2687            2812     37.7896E-03     49.7037E-03
            2688            2812     37.7896E-03     49.7037E-03
            2703            2812     37.7896E-03     49.7037E-03
            2705            2813     292.803E-03     283.706E-03
            2689            2813     292.803E-03     283.706E-03
            2690            2813     292.803E-03     283.706E-03
            2706            2813     292.803E-03     283.706E-03
            2690            2814     286.768E-03     280.289E-03
            2706            2814     286.768E-03     280.289E-03
            2691            2814     286.768E-03     280.289E-03
            2707            2814     286.768E-03     280.289E-03
            2691            2815     267.488E-03     261.071E-03
            2707            2815     267.488E-03     261.071E-03
            2708            2815     267.488E-03     261.071E-03
            2692            2815     267.488E-03     261.071E-03
            2708            2816     248.498E-03     241.850E-03
            2692            2816     248.498E-03     241.850E-03
            2693            2816     248.498E-03     241.850E-03
            2709            2816     248.498E-03     241.850E-03
            2710            2817     229.411E-03     222.983E-03
            2709            2817     229.411E-03     222.983E-03
            2693            2817     229.411E-03     222.983E-03
            2694            2817     229.411E-03     222.983E-03
            2695            2818     210.529E-03     204.061E-03
            2710            2818     210.529E-03     204.061E-03
            2694            2818     210.529E-03     204.061E-03
            2711            2818     210.529E-03     204.061E-03
            2711            2819     191.481E-03     185.187E-03
            2712            2819     191.481E-03     185.187E-03
            2696            2819     191.481E-03     185.187E-03
            2695            2819     191.481E-03     185.187E-03
            2696            2820     172.582E-03     166.296E-03
            2712            2820     172.582E-03     166.296E-03
            2713            2820     172.582E-03     166.296E-03
            2697            2820     172.582E-03     166.296E-03
            2697            2821     153.706E-03     147.588E-03
            2713            2821     153.706E-03     147.588E-03
            2698            2821     153.706E-03     147.588E-03
            2714            2821     153.706E-03     147.588E-03
            2698            2822     135.056E-03     129.041E-03
            2699            2822     135.056E-03     129.041E-03
            2715            2822     135.056E-03     129.041E-03
            2714            2822     135.056E-03     129.041E-03
            2715            2823     116.613E-03     110.854E-03
            2699            2823     116.613E-03     110.854E-03
            2700            2823     116.613E-03     110.854E-03
            2716            2823     116.613E-03     110.854E-03
            2700            2824     98.6652E-03     93.1937E-03
            2716            2824     98.6652E-03     93.1937E-03
            2717            2824     98.6652E-03     93.1937E-03
            2701            2824     98.6652E-03     93.1937E-03
            2717            2825     81.5063E-03     76.2898E-03
            2701            2825     81.5063E-03     76.2898E-03
            2702            2825     81.5063E-03     76.2898E-03
            2718            2825     81.5063E-03     76.2898E-03
            2718            2826     65.8474E-03     61.9126E-03
            2702            2826     65.8474E-03     61.9126E-03
            2719            2826     65.8474E-03     61.9126E-03
            2703            2826     65.8474E-03     61.9126E-03
            2720            2827     53.8358E-03     53.1914E-03
            2704            2827     53.8358E-03     53.1914E-03
            2703            2827     53.8358E-03     53.1914E-03
            2719            2827     53.8358E-03     53.1914E-03
            2916            2952     419.719E-06     450.960E-06
            2931            2952     419.719E-06     450.960E-06
            2932            2952     419.719E-06     450.960E-06
            2915            2952     419.719E-06     450.960E-06
            2917            2953     318.311E-06     355.115E-06
            2932            2953     318.311E-06     355.115E-06
            2933            2953     318.311E-06     355.115E-06
            2916            2953     318.311E-06     355.115E-06
            2918            2954     284.094E-06     320.750E-06
            2934            2954     284.094E-06     320.750E-06
            2933            2954     284.094E-06     320.750E-06
            2917            2954     284.094E-06     320.750E-06
            2919            2955     273.887E-06     309.279E-06
            2918            2955     273.887E-06     309.279E-06
            2934            2955     273.887E-06     309.279E-06
            2935            2955     273.887E-06     309.279E-06
            2936            2956     265.344E-06     299.240E-06
            2919            2956     265.344E-06     299.240E-06
            2920            2956     265.344E-06     299.240E-06
            2935            2956     265.344E-06     299.240E-06
            2920            2957     257.145E-06     290.136E-06
            2921            2957     257.145E-06     290.136E-06
            2937            2957     257.145E-06     290.136E-06
            2936            2957     257.145E-06     290.136E-06
            2937            2958     248.723E-06     280.649E-06
            2921            2958     248.723E-06     280.649E-06
            2922            2958     248.723E-06     280.649E-06
            2938            2958     248.723E-06     280.649E-06
            2938            2959     241.129E-06     271.680E-06
            2922            2959     241.129E-06     271.680E-06
            2923            2959     241.129E-06     271.680E-06
            2939            2959     241.129E-06     271.680E-06
            2924            2960     234.276E-06     263.110E-06
            2923            2960     234.276E-06     263.110E-06
            2939            2960     234.276E-06     263.110E-06
            2940            2960     234.276E-06     263.110E-06
            2925            2961     228.813E-06     255.236E-06
            2924            2961     228.813E-06     255.236E-06
            2940            2961     228.813E-06     255.236E-06
            2941            2961     228.813E-06     255.236E-06
            2941            2962     224.455E-06     248.158E-06
            2926            2962     224.455E-06     248.158E-06
            2942            2962     224.455E-06     248.158E-06
            2925            2962     224.455E-06     248.158E-06
            2926            2963     221.741E-06     241.651E-06
            2927            2963     221.741E-06     241.651E-06
            2942            2963     221.741E-06     241.651E-06
            2943            2963     221.741E-06     241.651E-06
            2927            2964     219.793E-06     235.486E-06
            2943            2964     219.793E-06     235.486E-06
            2928            2964     219.793E-06     235.486E-06
            2944            2964     219.793E-06     235.486E-06
            2944            2965     216.685E-06     233.730E-06
            2929            2965     216.685E-06     233.730E-06
            2945            2965     216.685E-06     233.730E-06
            2928            2965     216.685E-06     233.730E-06
            2945            2966     215.862E-06     233.384E-06
            2929            2966     215.862E-06     233.384E-06
            2946            2966     215.862E-06     233.384E-06
            2930            2966     215.862E-06     233.384E-06
            2932            2967     351.844E-06     357.852E-06
            2948            2967     351.844E-06     357.852E-06
            2931            2967     351.844E-06     357.852E-06
            2947            2967     351.844E-06     357.852E-06
            2949            2968     319.104E-06     336.867E-06
            2948            2968     319.104E-06     336.867E-06
            2932            2968     319.104E-06     336.867E-06
            2933            2968     319.104E-06     336.867E-06
            2933            2969     301.749E-06     324.346E-06
            2949            2969     301.749E-06     324.346E-06
            2950            2969     301.749E-06     324.346E-06
            2934            2969     301.749E-06     324.346E-06
            2935            2970     293.121E-06     315.082E-06
            2934            2970     293.121E-06     315.082E-06
            2950            2970     293.121E-06     315.082E-06
            2951            2970     293.121E-06     315.082E-06
            2935            2971     283.049E-06     303.413E-06
            2951            2971     283.049E-06     303.413E-06
            2936            2971     283.049E-06     303.413E-06
            2952            2971     283.049E-06     303.413E-06
            2936            2972     271.740E-06     292.091E-06
            2953            2972     271.740E-06     292.091E-06
            2937            2972     271.740E-06     292.091E-06
            2952            2972     271.740E-06     292.091E-06
            2937            2973     262.293E-06     281.790E-06
            2953            2973     262.293E-06     281.790E-06
            2954            2973     262.293E-06     281.790E-06
            2938            2973     262.293E-06     281.790E-06
            2938            2974     253.601E-06     272.505E-06
            2954            2974     253.601E-06     272.505E-06
            2939            2974     253.601E-06     272.505E-06
            2955            2974     253.601E-06     272.505E-06
            2939            2975     246.451E-06     264.403E-06
            2940            2975     246.451E-06     264.403E-06
            2956            2975     246.451E-06     264.403E-06
            2955            2975     246.451E-06     264.403E-06
            2941            2976     240.482E-06     257.142E-06
            2956            2976     240.482E-06     257.142E-06
            2957            2976     240.482E-06     257.142E-06
            2940            2976     240.482E-06     257.142E-06
            2942            2977     235.664E-06     251.118E-06
            2941            2977     235.664E-06     251.118E-06
            2958            2977     235.664E-06     251.118E-06
            2957            2977     235.664E-06     251.118E-06
            2942            2978     232.395E-06     245.887E-06
            2959            2978     232.395E-06     245.887E-06
            2943            2978     232.395E-06     245.887E-06
            2958            2978     232.395E-06     245.887E-06
            2959            2979     230.720E-06     241.521E-06
            2943            2979     230.720E-06     241.521E-06
            2960            2979     230.720E-06     241.521E-06
            2944            2979     230.720E-06     241.521E-06
            2961            2980     231.612E-06     236.524E-06
            2945            2980     231.612E-06     236.524E-06
            2960            2980     231.612E-06     236.524E-06
            2944            2980     231.612E-06     236.524E-06
            2961            2981     239.677E-06     227.607E-06
            2945            2981     239.677E-06     227.607E-06
            2962            2981     239.677E-06     227.607E-06
            2946            2981     239.677E-06     227.607E-06
            2948            2982     250.836E-06     261.088E-06
            2963            2982     250.836E-06     261.088E-06
            2947            2982     250.836E-06     261.088E-06
            2964            2982     250.836E-06     261.088E-06
            2949            2983     280.430E-06     296.081E-06
            2964            2983     280.430E-06     296.081E-06
            2965            2983     280.430E-06     296.081E-06
            2948            2983     280.430E-06     296.081E-06
            2949            2984     310.012E-06     319.160E-06
            2965            2984     310.012E-06     319.160E-06
            2966            2984     310.012E-06     319.160E-06
            2950            2984     310.012E-06     319.160E-06
            2951            2985     307.305E-06     313.607E-06
            2966            2985     307.305E-06     313.607E-06
            2967            2985     307.305E-06     313.607E-06
            2950            2985     307.305E-06     313.607E-06
            2967            2986     296.013E-06     303.096E-06
            2968            2986     296.013E-06     303.096E-06
            2951            2986     296.013E-06     303.096E-06
            2952            2986     296.013E-06     303.096E-06
            2953            2987     285.067E-06     291.436E-06
            2969            2987     285.067E-06     291.436E-06
            2968            2987     285.067E-06     291.436E-06
            2952            2987     285.067E-06     291.436E-06
            2969            2988     274.574E-06     281.267E-06
            2970            2988     274.574E-06     281.267E-06
            2953            2988     274.574E-06     281.267E-06
            2954            2988     274.574E-06     281.267E-06
            2954            2989     266.126E-06     272.626E-06
            2970            2989     266.126E-06     272.626E-06
            2955            2989     266.126E-06     272.626E-06
            2971            2989     266.126E-06     272.626E-06
            2955            2990     258.843E-06     265.215E-06
            2956            2990     258.843E-06     265.215E-06
            2972            2990     258.843E-06     265.215E-06
            2971            2990     258.843E-06     265.215E-06
            2972            2991     252.724E-06     259.209E-06
            2973            2991     252.724E-06     259.209E-06
            2956            2991     252.724E-06     259.209E-06
            2957            2991     252.724E-06     259.209E-06
            2974            2992     247.874E-06     254.009E-06
            2957            2992     247.874E-06     254.009E-06
            2958            2992     247.874E-06     254.009E-06
            2973            2992     247.874E-06     254.009E-06
            2974            2993     243.675E-06     250.409E-06
            2958            2993     243.675E-06     250.409E-06
            2975            2993     243.675E-06     250.409E-06
            2959            2993     243.675E-06     250.409E-06
            2959            2994     241.794E-06     247.967E-06
            2976            2994     241.794E-06     247.967E-06
            2960            2994     241.794E-06     247.967E-06
            2975            2994     241.794E-06     247.967E-06
            2960            2995     247.318E-06     239.758E-06
            2976            2995     247.318E-06     239.758E-06
            2977            2995     247.318E-06     239.758E-06
            2961            2995     247.318E-06     239.758E-06
            2977            2996     253.108E-06     226.911E-06
            2961            2996     253.108E-06     226.911E-06
            2962            2996     253.108E-06     226.911E-06
            2978            2996     253.108E-06     226.911E-06
            2980            2997     169.973E-06     170.808E-06
            2964            2997     169.973E-06     170.808E-06
            2979            2997     169.973E-06     170.808E-06
            2963            2997     169.973E-06     170.808E-06
            2981            2998     249.857E-06     251.185E-06
            2980            2998     249.857E-06     251.185E-06
            2964            2998     249.857E-06     251.185E-06
            2965            2998     249.857E-06     251.185E-06
            2981            2999     301.895E-06     293.750E-06
            2966            2999     301.895E-06     293.750E-06
            2965            2999     301.895E-06     293.750E-06
            2982            2999     301.895E-06     293.750E-06
            2967            3000     308.516E-06     299.485E-06
            2982            3000     308.516E-06     299.485E-06
            2983            3000     308.516E-06     299.485E-06
            2966            3000     308.516E-06     299.485E-06
            2983            3001     302.696E-06     294.055E-06
            2984            3001     302.696E-06     294.055E-06
            2967            3001     302.696E-06     294.055E-06
            2968            3001     302.696E-06     294.055E-06
            2969            3002     294.058E-06     286.234E-06
            2968            3002     294.058E-06     286.234E-06
            2984            3002     294.058E-06     286.234E-06
            2985            3002     294.058E-06     286.234E-06
            2985            3003     285.783E-06     278.572E-06
            2969            3003     285.783E-06     278.572E-06
            2986            3003     285.783E-06     278.572E-06
            2970            3003     285.783E-06     278.572E-06
            2970            3004     278.261E-06     271.799E-06
            2987            3004     278.261E-06     271.799E-06
            2986            3004     278.261E-06     271.799E-06
            2971            3004     278.261E-06     271.799E-06
            2987            3005     271.663E-06     266.126E-06
            2971            3005     271.663E-06     266.126E-06
            2972            3005     271.663E-06     266.126E-06
            2988            3005     271.663E-06     266.126E-06
            2988            3006     265.897E-06     261.212E-06
            2973            3006     265.897E-06     261.212E-06
            2972            3006     265.897E-06     261.212E-06
            2989            3006     265.897E-06     261.212E-06
            2990            3007     260.729E-06     257.512E-06
            2989            3007     260.729E-06     257.512E-06
            2974            3007     260.729E-06     257.512E-06
            2973            3007     260.729E-06     257.512E-06
            2974            3008     256.544E-06     254.621E-06
            2990            3008     256.544E-06     254.621E-06
            2975            3008     256.544E-06     254.621E-06
            2991            3008     256.544E-06     254.621E-06
            2976            3009     252.993E-06     253.014E-06
            2992            3009     252.993E-06     253.014E-06
            2975            3009     252.993E-06     253.014E-06
            2991            3009     252.993E-06     253.014E-06
            2976            3010     251.114E-06     252.811E-06
            2993            3010     251.114E-06     252.811E-06
            2992            3010     251.114E-06     252.811E-06
            2977            3010     251.114E-06     252.811E-06
            2993            3011     257.764E-06     247.376E-06
            2977            3011     257.764E-06     247.376E-06
            2994            3011     257.764E-06     247.376E-06
            2978            3011     257.764E-06     247.376E-06
            2980            3012     131.654E-06     140.937E-06
            2995            3012     131.654E-06     140.937E-06
            2979            3012     131.654E-06     140.937E-06
            2996            3012     131.654E-06     140.937E-06
            2997            3013     230.737E-06     200.962E-06
            2996            3013     230.737E-06     200.962E-06
            2980            3013     230.737E-06     200.962E-06
            2981            3013     230.737E-06     200.962E-06
            2982            3014     279.604E-06     251.995E-06
            2981            3014     279.604E-06     251.995E-06
            2998            3014     279.604E-06     251.995E-06
            2997            3014     279.604E-06     251.995E-06
            2983            3015     299.189E-06     273.707E-06
            2982            3015     299.189E-06     273.707E-06
            2998            3015     299.189E-06     273.707E-06
            2999            3015     299.189E-06     273.707E-06
            2984            3016     303.584E-06     278.941E-06
            2983            3016     303.584E-06     278.941E-06
            3000            3016     303.584E-06     278.941E-06
            2999            3016     303.584E-06     278.941E-06
            2985            3017     300.910E-06     278.208E-06
            2984            3017     300.910E-06     278.208E-06
            3000            3017     300.910E-06     278.208E-06
            3001            3017     300.910E-06     278.208E-06
            3002            3018     296.349E-06     274.892E-06
            3001            3018     296.349E-06     274.892E-06
            2985            3018     296.349E-06     274.892E-06
            2986            3018     296.349E-06     274.892E-06
            2986            3019     290.806E-06     271.087E-06
            2987            3019     290.806E-06     271.087E-06
            3003            3019     290.806E-06     271.087E-06
            3002            3019     290.806E-06     271.087E-06
            3004            3020     285.239E-06     267.340E-06
            2987            3020     285.239E-06     267.340E-06
            3003            3020     285.239E-06     267.340E-06
            2988            3020     285.239E-06     267.340E-06
            3004            3021     279.918E-06     263.996E-06
            2988            3021     279.918E-06     263.996E-06
            2989            3021     279.918E-06     263.996E-06
            3005            3021     279.918E-06     263.996E-06
            2990            3022     274.773E-06     261.391E-06
            3006            3022     274.773E-06     261.391E-06
            2989            3022     274.773E-06     261.391E-06
            3005            3022     274.773E-06     261.391E-06
            2991            3023     270.281E-06     259.364E-06
            2990            3023     270.281E-06     259.364E-06
            3006            3023     270.281E-06     259.364E-06
            3007            3023     270.281E-06     259.364E-06
            2992            3024     265.306E-06     258.243E-06
            2991            3024     265.306E-06     258.243E-06
            3007            3024     265.306E-06     258.243E-06
            3008            3024     265.306E-06     258.243E-06
            3009            3025     258.164E-06     262.316E-06
            3008            3025     258.164E-06     262.316E-06
            2993            3025     258.164E-06     262.316E-06
            2992            3025     258.164E-06     262.316E-06
            3010            3026     252.284E-06     270.115E-06
            2994            3026     252.284E-06     270.115E-06
            2993            3026     252.284E-06     270.115E-06
            3009            3026     252.284E-06     270.115E-06


  Minimum                            67.0317E-06     114.656E-06
      At Element                            2995            2995
            Node                             596             596

  Maximum                            406.792E-03     420.958E-03
      At Element                            1737            2641
            Node                             389              20

           Total                         392.518         404.379


